"PointID"	"x"	"y"	"Displacement_1"	"Displacement_2"	"Sxx"	"Syy"	"Sxy"	"Von_Mises_Stress"
0	0.000000000000000e+00	1.200000000000000e+01	0.000000000000000e+00	-2.453186193617929e-01	-2.118397689834012e+04	-8.976170174452949e+03	3.152206292342413e+03	1.373958380176478e+04	
1	0.000000000000000e+00	0.000000000000000e+00	0.000000000000000e+00	-2.428603639640317e-01	1.604454404381865e+04	4.358490068628756e+02	5.635345294514844e+02	1.564933370531231e+04	
2	5.200000000000000e+01	0.000000000000000e+00	3.761406204572744e-02	0.000000000000000e+00	-4.423186953470273e+03	2.901438656910507e+04	-1.448175445461674e+04	4.423749734572333e+04	
3	5.200000000000000e+01	1.200000000000000e+01	-4.087601291124500e-02	3.056623929607150e-03	1.476476478708783e+01	1.488949895395915e+01	7.012153017712627e+00	1.402486072614093e+01	
4	0.000000000000000e+00	1.100000000000000e+01	0.000000000000000e+00	-2.450575090141499e-01	-1.362976563636678e+04	-6.224350581667699e+03	1.774099917387221e+03	8.211570751071757e+03	
5	0.000000000000000e+00	1.000000000000000e+01	0.000000000000000e+00	-2.448924555573072e-01	-1.017236119440577e+04	-4.322619099958200e+03	1.127514558476751e+03	6.269341184674820e+03	
6	0.000000000000000e+00	9.000000000000000e+00	0.000000000000000e+00	-2.448038418983489e-01	-7.311708911198089e+03	-2.998060623954341e+03	8.665475438103838e+02	4.648782650197379e+03	
7	0.000000000000000e+00	8.000000000000000e+00	0.000000000000000e+00	-2.447317961524408e-01	-4.707480323977257e+03	-2.190314973291566e+03	7.397384758904482e+02	2.919755718128404e+03	
8	0.000000000000000e+00	7.000000000000000e+00	0.000000000000000e+00	-2.446483272584484e-01	-2.197662543180663e+03	-1.628553761161739e+03	6.712390487633729e+02	1.458126279891455e+03	
9	0.000000000000000e+00	6.000000000000000e+00	0.000000000000000e+00	-2.445379588996476e-01	2.767425664202108e+02	-1.203702149465511e+03	6.311084357001023e+02	1.945483998197178e+03	
10	0.000000000000000e+00	5.000000000000000e+00	0.000000000000000e+00	-2.443909574805521e-01	2.747973190058418e+03	-8.649073889663129e+02	6.063355763258940e+02	3.810968040113679e+03	
11	0.000000000000000e+00	4.000000000000000e+00	0.000000000000000e+00	-2.442000751812284e-01	5.239613587304946e+03	-5.885405591011942e+02	5.905411563554067e+02	5.946623931582474e+03	
12	0.000000000000000e+00	3.000000000000000e+00	0.000000000000000e+00	-2.439588850262892e-01	7.773667445221131e+03	-3.650548319841560e+02	5.802712579246734e+02	8.221049764876232e+03	
13	0.000000000000000e+00	2.000000000000000e+00	0.000000000000000e+00	-2.436607269842856e-01	1.037417039267455e+04	-1.939341237387709e+02	5.734072379093018e+02	1.063014658938356e+04	
14	0.000000000000000e+00	1.000000000000000e+00	0.000000000000000e+00	-2.432978349055369e-01	1.307027639578229e+04	-8.235848451726849e+01	5.683659237821253e+02	1.320166518238284e+04	
15	1.000000000000000e+00	0.000000000000000e+00	1.591841646834737e-03	-2.427139815047005e-01	1.599803058677273e+04	4.350963035116507e+02	4.035578161224987e+01	1.556314357260580e+04	
16	2.000000000000000e+00	0.000000000000000e+00	3.174341052362260e-03	-2.422764292175590e-01	1.586235850944018e+04	4.327710334869683e+02	7.772687286207230e+01	1.543037055760982e+04	
17	3.000000000000000e+00	0.000000000000000e+00	4.738936778191614e-03	-2.415522800487682e-01	1.564830311550990e+04	4.287259021802229e+02	1.097534739382373e+02	1.522116006921516e+04	
18	4.000000000000000e+00	0.000000000000000e+00	6.278459263468255e-03	-2.405485073050511e-01	1.537134353426298e+04	4.228593112531950e+02	1.351102656193528e+02	1.495092638270537e+04	
19	5.000000000000000e+00	0.000000000000000e+00	7.787461940324827e-03	-2.392736952552252e-01	1.504880614639141e+04	4.152312151263311e+02	1.535898757550949e+02	1.463679864822522e+04	
20	6.000000000000000e+00	0.000000000000000e+00	9.262252070204861e-03	-2.377372236963700e-01	1.469718384855053e+04	4.061021187518143e+02	1.658924859273670e+02	1.429493260828240e+04	
21	7.000000000000000e+00	0.000000000000000e+00	1.070068147578268e-02	-2.359485805741659e-01	1.433024298149830e+04	3.958833307743768e+02	1.732550664857352e+02	1.393866737346059e+04	
22	8.000000000000000e+00	0.000000000000000e+00	1.210180034198021e-02	-2.339168864450103e-01	1.395814561714844e+04	3.850364869647767e+02	1.770729308817198e+02	1.357772848274995e+04	
23	9.000000000000000e+00	0.000000000000000e+00	1.346547768891960e-02	-2.316506411209424e-01	1.358746328021692e+04	3.739752784111520e+02	1.786186869357237e+02	1.321831622087911e+04	
24	1.000000000000000e+01	0.000000000000000e+00	1.479206366694779e-02	-2.291576517564191e-01	1.322176411292461e+04	3.630049315024561e+02	1.788936668187702e+02	1.286373582836339e+04	
25	1.100000000000000e+01	0.000000000000000e+00	1.608213134841848e-02	-2.264450806598628e-01	1.286243268955163e+04	3.523068986371397e+02	1.785928936956273e+02	1.251522388897690e+04	
26	1.200000000000000e+01	0.000000000000000e+00	1.733630433979722e-02	-2.235195540056598e-01	1.250946838350530e+04	3.419563239331474e+02	1.781411200035977e+02	1.217272716996394e+04	
27	1.300000000000000e+01	0.000000000000000e+00	1.855515764572305e-02	-2.203872878030117e-01	1.216212681351726e+04	3.319539746957389e+02	1.777588118273491e+02	1.183551360005638e+04	
28	1.400000000000000e+01	0.000000000000000e+00	1.973917201797341e-02	-2.170542049684083e-01	1.181936666954583e+04	3.222582823145462e+02	1.775300406656220e+02	1.150258966185872e+04	
29	1.500000000000000e+01	0.000000000000000e+00	2.088872251207803e-02	-2.135260315528142e-01	1.148012236138603e+04	3.128101652209210e+02	1.774583486914231e+02	1.117295070913227e+04	
30	1.600000000000000e+01	0.000000000000000e+00	2.200408602181322e-02	-2.098083694351312e-01	1.114344597026030e+04	3.035489839726957e+02	1.775067263719006e+02	1.084570888531294e+04	
31	1.700000000000000e+01	0.000000000000000e+00	2.308545733516697e-02	-2.059067477116308e-01	1.080856307569259e+04	2.944210146570381e+02	1.776232002831527e+02	1.052014179014486e+04	
32	1.800000000000000e+01	0.000000000000000e+00	2.413296734108770e-02	-2.018266569481912e-01	1.047487830382493e+04	2.853827525072776e+02	1.777554752278029e+02	1.019569554401346e+04	
33	1.900000000000000e+01	0.000000000000000e+00	2.514669998379727e-02	-1.975735706969101e-01	1.014195559477603e+04	2.764011620472782e+02	1.778581523418058e+02	9.871965273163791e+03	
34	2.000000000000000e+01	0.000000000000000e+00	2.612670648235426e-02	-1.931529581168369e-01	9.809488817154695e+03	2.674524139314306e+02	1.778953671458520e+02	9.548667224646892e+03	
35	2.100000000000000e+01	0.000000000000000e+00	2.707301645532851e-02	-1.885702907187944e-01	9.477271517489549e+03	2.585200778307590e+02	1.778408675050502e+02	9.225610418982087e+03	
36	2.200000000000000e+01	0.000000000000000e+00	2.798564617283190e-02	-1.838310454505497e-01	9.145170115698002e+03	2.495933076927228e+02	1.776768379471023e+02	8.902671676642518e+03	
37	2.300000000000000e+01	0.000000000000000e+00	2.886460440814028e-02	-1.789407056639032e-01	8.813102189153286e+03	2.406652732191951e+02	1.773922479996482e+02	8.579775446727675e+03	
38	2.400000000000000e+01	0.000000000000000e+00	2.970989642483706e-02	-1.739047609864358e-01	8.481020052499412e+03	2.317319265662483e+02	1.769811410379073e+02	8.256878579814180e+03	
39	2.500000000000000e+01	0.000000000000000e+00	3.052152660737270e-02	-1.687287067443889e-01	8.148899185128469e+03	2.227911092695172e+02	1.764410538047193e+02	7.933959604892591e+03	
40	2.600000000000000e+01	0.000000000000000e+00	3.129950018021049e-02	-1.634180433210553e-01	7.816730864901386e+03	2.138419699027080e+02	1.757716194428718e+02	7.611011903715596e+03	
41	2.700000000000000e+01	0.000000000000000e+00	3.204382439580967e-02	-1.579782756561287e-01	7.484518424952354e+03	2.048846569381359e+02	1.749733336321062e+02	7.288040234956323e+03	
42	2.800000000000000e+01	0.000000000000000e+00	3.275450952110392e-02	-1.524149129668577e-01	7.152276734701240e+03	1.959202595366910e+02	1.740464268786071e+02	6.965060232646993e+03	
43	2.900000000000000e+01	0.000000000000000e+00	3.343156992351635e-02	-1.467334686761747e-01	6.820034739817642e+03	1.869509849765267e+02	1.729897768848939e+02	6.642100718173720e+03	
44	3.000000000000000e+01	0.000000000000000e+00	3.407502555252662e-02	-1.409394604439334e-01	6.487841127658677e+03	1.779805787747383e+02	1.717998014151098e+02	6.319208877179723e+03	
45	3.100000000000000e+01	0.000000000000000e+00	3.468490412943021e-02	-1.350384100941243e-01	6.155773381347130e+03	1.690150110086201e+02	1.704692975498036e+02	5.996458530703494e+03	
46	3.200000000000000e+01	0.000000000000000e+00	3.526124439076759e-02	-1.290358430928479e-01	5.823950611177969e+03	1.600634676613611e+02	1.689862341750119e+02	5.673961840183219e+03	
47	3.300000000000000e+01	0.000000000000000e+00	3.580410077099837e-02	-1.229372870369490e-01	5.492550559134651e+03	1.511396981733106e+02	1.673325713993686e+02	5.351884784204558e+03	
48	3.400000000000000e+01	0.000000000000000e+00	3.631354994291185e-02	-1.167482683363887e-01	5.161831004071447e+03	1.422637792144685e+02	1.654832803475016e+02	5.030466577680112e+03	
49	3.500000000000000e+01	0.000000000000000e+00	3.678969963908745e-02	-1.104743058843143e-01	4.832155365353938e+03	1.334643611205806e+02	1.634058861173189e+02	4.710042790435627e+03	
50	3.600000000000000e+01	0.000000000000000e+00	3.723270012277933e-02	-1.041208999673137e-01	4.504021487434939e+03	1.247814668035511e+02	1.610610847356382e+02	4.391071150683450e+03	
51	3.700000000000000e+01	0.000000000000000e+00	3.764275851652214e-02	-9.769351391638592e-02	4.178091201218696e+03	1.162699110864347e+02	1.584053390652836e+02	4.074157728751952e+03	
52	3.800000000000000e+01	0.000000000000000e+00	3.802015586242326e-02	-9.119754494273614e-02	3.855215987446117e+03	1.080034037966994e+02	1.553969621263331e+02	3.760079122892617e+03	
53	3.900000000000000e+01	0.000000000000000e+00	3.836526617076023e-02	-8.463827906813545e-02	3.536450245316673e+03	1.000792847008906e+02	1.520082530377792e+02	3.449792952472630e+03	
54	4.000000000000000e+01	0.000000000000000e+00	3.867857561667554e-02	-7.802082273236653e-02	3.223037127043810e+03	9.262382164523936e+01	1.482485188337442e+02	3.144423310555054e+03	
55	4.100000000000000e+01	0.000000000000000e+00	3.896069811238725e-02	-7.134999978203005e-02	2.916338250832957e+03	8.579577149339565e+01	1.442067184946676e+02	2.845198242299077e+03	
56	4.200000000000000e+01	0.000000000000000e+00	3.921237977497683e-02	-6.463019614784529e-02	2.617655911988294e+03	7.979036482311636e+01	1.401365974901325e+02	2.553294851620637e+03	
57	4.300000000000000e+01	0.000000000000000e+00	3.943447804834099e-02	-5.786511995393112e-02	2.327809700937811e+03	7.479712258829855e+01	1.366125482687549e+02	2.269519251202565e+03	
58	4.400000000000000e+01	0.000000000000000e+00	3.962788306137625e-02	-5.105742853347076e-02	2.046302762989933e+03	7.105610915181400e+01	1.349632374347943e+02	1.993604686324299e+03	
59	4.500000000000000e+01	0.000000000000000e+00	3.979332520148007e-02	-4.420806088028453e-02	1.768743234191528e+03	6.784081742056753e+01	1.377609227640343e+02	1.723073219204711e+03	
60	4.600000000000000e+01	0.000000000000000e+00	3.993083941942099e-02	-3.731527975110763e-02	1.483757914085713e+03	6.659885582747479e+01	1.533094285076602e+02	1.449949971509624e+03	
61	4.700000000000000e+01	0.000000000000000e+00	4.003876439105650e-02	-3.037128040155640e-02	1.142202700614404e+03	4.297636616528512e+01	1.904058282369492e+02	1.163321130235689e+03	
62	4.800000000000000e+01	0.000000000000000e+00	4.010872018638201e-02	-2.336302516874189e-02	6.660031768070901e+02	6.056878434431952e+01	3.597792289868636e+02	9.403803368947547e+02	
63	4.900000000000000e+01	0.000000000000000e+00	4.011957624800395e-02	-1.621925524808748e-02	-8.700740158059498e+02	-6.861386489332194e+02	5.473033909418125e+02	1.109953254030201e+03	
64	5.000000000000000e+01	0.000000000000000e+00	3.992628141562245e-02	-8.991793459822615e-03	-5.738097221985963e+03	-1.666468961189263e+02	4.282129688258650e+03	1.021702488016294e+04	
65	5.100000000000000e+01	0.000000000000000e+00	3.893343717747768e-02	0.000000000000000e+00	-1.948353961643631e+04	-2.674643164781439e+04	-3.617521781512662e+03	1.025160748460110e+04	
66	5.200000000000000e+01	1.000000000000000e+00	3.385775713683704e-02	3.036766220650165e-03	1.042378077175719e+04	2.209268896412810e+04	-8.788561212897494e+02	1.180054959439156e+04	
67	5.200000000000000e+01	2.000000000000000e+00	2.688984249795809e-02	3.771693178836719e-03	2.386289257171206e+03	4.742064182018241e+03	-1.548007936184177e+03	3.890371419092890e+03	
68	5.200000000000000e+01	3.000000000000000e+00	1.994330615159425e-02	3.799324389582080e-03	5.721742937551361e+02	-1.278459833795024e+02	-4.197349055273715e+02	1.093040690949766e+03	
69	5.200000000000000e+01	4.000000000000000e+00	1.308423448208013e-02	3.665654265131934e-03	1.066120745412570e+02	-1.178695316749056e+03	-6.034363549628284e+01	1.290961078997017e+03	
70	5.200000000000000e+01	5.000000000000000e+00	6.295884573672927e-03	3.510853155964856e-03	2.633728272194547e+00	-1.228389295438953e+03	6.903997955138331e+01	1.238742814313269e+03	
71	5.200000000000000e+01	6.000000000000000e+00	-4.500506285348617e-04	3.373794836277948e-03	-1.889914591616247e+01	-1.004078145590595e+03	1.102142904799522e+02	1.009537726240834e+03	
72	5.200000000000000e+01	7.000000000000000e+00	-7.174030335182908e-03	3.265435584369958e-03	-1.856639203867264e+01	-7.122130655395282e+02	1.157659819376615e+02	7.312679112027045e+02	
73	5.200000000000000e+01	8.000000000000000e+00	-1.389186992085035e-02	3.186896755188364e-03	-1.425330586308448e+01	-4.311661165264499e+02	1.028482278849915e+02	4.648949597614064e+02	
74	5.200000000000000e+01	9.000000000000000e+00	-2.061572542131386e-02	3.134531049144984e-03	-1.213637318109071e+01	-2.028486459430744e+02	7.831056961881038e+01	2.467819933425684e+02	
75	5.200000000000000e+01	1.000000000000000e+01	-2.735394600437582e-02	3.101474986181379e-03	-1.451830979668657e+01	-5.616682580781421e+01	4.692281614232262e+01	1.026723019359847e+02	
76	5.200000000000000e+01	1.100000000000000e+01	-3.410942997365138e-02	3.078483820690416e-03	-1.581949225744426e+01	-1.151843553476537e-01	1.846488979624869e+01	4.013021190368038e+01	
77	5.100000000000000e+01	1.200000000000000e+01	-4.085414914332294e-02	-3.711782236974867e-03	2.665938895645672e-01	-1.466651669129529e+01	1.842874241905987e+01	3.976772535879335e+01	
78	5.000000000000000e+01	1.200000000000000e+01	-4.083112428760629e-02	-1.049124002188811e-02	-5.301441075760494e+01	-1.108928248462488e+01	4.525279200978534e+01	9.974455934751226e+01	
79	4.900000000000000e+01	1.200000000000000e+01	-4.079829275364303e-02	-1.728797913137940e-02	-1.924612070030919e+02	-6.558952003611273e+00	7.382032689176414e+01	2.373971589204883e+02	
80	4.800000000000000e+01	1.200000000000000e+01	-4.074698783273822e-02	-2.410001433701220e-02	-4.097185440505610e+02	-7.264984812617701e+00	9.653946214894908e+01	4.463724211365686e+02	
81	4.700000000000000e+01	1.200000000000000e+01	-4.067066219317027e-02	-3.092140706495594e-02	-6.840278989340514e+02	-1.213351362807418e+01	1.125767159323909e+02	7.086156453862602e+02	
82	4.600000000000000e+01	1.200000000000000e+01	-4.056477216413280e-02	-3.774450367846471e-02	-9.970639978722038e+02	-1.963130310958708e+01	1.228054537123084e+02	1.007819125953092e+03	
83	4.500000000000000e+01	1.200000000000000e+01	-4.042636264662910e-02	-4.456101273135620e-02	-1.334552703740428e+03	-2.869169323576793e+01	1.283699922911553e+02	1.330860022105848e+03	
84	4.400000000000000e+01	1.200000000000000e+01	-4.025368946202559e-02	-5.136257052297647e-02	-1.685790231619704e+03	-3.865686096837414e+01	1.303928141737165e+02	1.667650288479505e+03	
85	4.300000000000000e+01	1.200000000000000e+01	-4.004590103998114e-02	-5.814105516943414e-02	-2.043080922931401e+03	-4.910323937697457e+01	1.299065243947557e+02	2.010833116604751e+03	
86	4.200000000000000e+01	1.200000000000000e+01	-3.980276524472112e-02	-6.488875050973185e-02	-2.401271071664016e+03	-5.973547516084216e+01	1.278071428468868e+02	2.355446372291717e+03	
87	4.100000000000000e+01	1.200000000000000e+01	-3.952443956525756e-02	-7.159840447345597e-02	-2.757281223004838e+03	-7.034556737525479e+01	1.248132812711840e+02	2.698506371721271e+03	
88	4.000000000000000e+01	1.200000000000000e+01	-3.921129016782068e-02	-7.826321377736910e-02	-3.109605180357958e+03	-8.080073003801255e+01	1.214501348080452e+02	3.038528745833660e+03	
89	3.900000000000000e+01	1.200000000000000e+01	-3.886376235186348e-02	-8.487676449506722e-02	-3.457817249249020e+03	-9.103385224632331e+01	1.180632293995999e+02	3.375053502817113e+03	
90	3.800000000000000e+01	1.200000000000000e+01	-3.848229808787953e-02	-9.143295389224076e-02	-3.802145624081323e+03	-1.010287279867186e+02	1.148524972574664e+02	3.708238215522577e+03	
91	3.700000000000000e+01	1.200000000000000e+01	-3.806729117225754e-02	-9.792591170733571e-02	-4.143146943306041e+03	-1.108024328658249e+02	1.119131174472370e+02	4.038551774374619e+03	
92	3.600000000000000e+01	1.200000000000000e+01	-3.761906887526901e-02	-1.043499312784495e-01	-4.481486533871514e+03	-1.203893196693022e+02	1.092730205826232e+02	4.366569738803137e+03	
93	3.500000000000000e+01	1.200000000000000e+01	-3.713789004754610e-02	-1.106994146678987e-01	-4.817808147168886e+03	-1.298291726383034e+02	1.069222067921177e+02	4.692853747866217e+03	
94	3.400000000000000e+01	1.200000000000000e+01	-3.662395201085490e-02	-1.169688319293925e-01	-5.152669190835620e+03	-1.391598996571539e+02	1.048330816920267e+02	5.017891520629058e+03	
95	3.300000000000000e+01	1.200000000000000e+01	-3.607740106193683e-02	-1.231526926169184e-01	-5.486518448320980e+03	-1.484138960944877e+02	1.029731303822963e+02	5.342075820579875e+03	
96	3.200000000000000e+01	1.200000000000000e+01	-3.549834348951121e-02	-1.292455269271567e-01	-5.819698203361891e+03	-1.576168871438603e+02	1.013119249176831e+02	5.665705715618083e+03	
97	3.100000000000000e+01	1.200000000000000e+01	-3.488685548982309e-02	-1.352418739129124e-01	-6.152458266215501e+03	-1.667882004135181e+02	9.982435456152120e+01	5.988998726305793e+03	
98	3.000000000000000e+01	1.200000000000000e+01	-3.424299132185563e-02	-1.411362745915891e-01	-6.484974109985599e+03	-1.759417138545573e+02	9.849156058301540e+01	6.312106789769587e+03	
99	2.900000000000000e+01	1.200000000000000e+01	-3.356678959951537e-02	-1.469232682544893e-01	-6.817364743721062e+03	-1.850870069880635e+02	9.730061104682261e+01	6.635132071994085e+03	
100	2.800000000000000e+01	1.200000000000000e+01	-3.285827790476191e-02	-1.525973907354490e-01	-7.149708183298468e+03	-1.942304538954982e+02	9.624357494628920e+01	6.958140681755037e+03	
101	2.700000000000000e+01	1.200000000000000e+01	-3.211747602740820e-02	-1.581531737713924e-01	-7.482053700395771e+03	-2.033761348251560e+02	9.531637624726758e+01	7.281173528344495e+03	
102	2.600000000000000e+01	1.200000000000000e+01	-3.134439816850437e-02	-1.635851448732653e-01	-7.814430714424890e+03	-2.125265198044282e+02	9.451761814037241e+01	7.604254184648477e+03	
103	2.500000000000000e+01	1.200000000000000e+01	-3.053905443437158e-02	-1.688878273342850e-01	-8.146854467526614e+03	-2.216829169680727e+02	9.384744457116604e+01	7.927393864139251e+03	
104	2.400000000000000e+01	1.200000000000000e+01	-2.970145192739677e-02	-1.740557401510519e-01	-8.479328642639466e+03	-2.308456880759806e+02	9.330643300377493e+01	8.250593640065175e+03	
105	2.300000000000000e+01	1.200000000000000e+01	-2.883159572698817e-02	-1.790833977424451e-01	-8.811844958044923e+03	-2.400142304840387e+02	9.289446783874649e+01	8.573843919186838e+03	
106	2.200000000000000e+01	1.200000000000000e+01	-2.792949005855381e-02	-1.839653094413890e-01	-9.144379567424205e+03	-2.491867101297690e+02	9.260952561294938e+01	8.897120998693847e+03	
107	2.100000000000000e+01	1.200000000000000e+01	-2.699513997607882e-02	-1.886959788259707e-01	-9.476885853864871e+03	-2.583595131525161e+02	9.244629967262894e+01	9.220380315784167e+03	
108	2.000000000000000e+01	1.200000000000000e+01	-2.602855393542782e-02	-1.932699030697184e-01	-9.809282970781691e+03	-2.675263633436178e+02	9.239460426893515e+01	9.543545787975254e+03	
109	1.900000000000000e+01	1.200000000000000e+01	-2.502974770899906e-02	-1.976815726489590e-01	-1.014143929030825e+04	-2.766770311639657e+02	9.243753004197137e+01	9.866494474598283e+03	
110	1.800000000000000e+01	1.200000000000000e+01	-2.399875018135560e-02	-2.019254719740765e-01	-1.047314981441561e+04	-2.857955410696606e+02	9.254937867700599e+01	1.018903570710369e+04	
111	1.700000000000000e+01	1.200000000000000e+01	-2.293561165875780e-02	-2.059960818414999e-01	-1.080410664318902e+04	-2.948577571547233e+02	9.269349284066377e+01	1.051088390588885e+04	
112	1.600000000000000e+01	1.200000000000000e+01	-2.184041540513203e-02	-2.098878850721196e-01	-1.113386185405596e+04	-3.038281990663975e+02	9.282022748430546e+01	1.083162459406379e+04	
113	1.500000000000000e+01	1.200000000000000e+01	-2.071329315736278e-02	-2.135953773565566e-01	-1.146178268555675e+04	-3.126558815990234e+02	9.286549519024487e+01	1.115067372365977e+04	
114	1.400000000000000e+01	1.200000000000000e+01	-1.955444534128738e-02	-2.171130862359399e-01	-1.178699980616130e+04	-3.212688639333046e+02	9.275057949581915e+01	1.146723143219634e+04	
115	1.300000000000000e+01	1.200000000000000e+01	-1.836416656755460e-02	-2.204356024136182e-01	-1.210835068835733e+04	-3.295669723499351e+02	9.238428583004230e+01	1.178023281830856e+04	
116	1.200000000000000e+01	1.200000000000000e+01	-1.714287669487935e-02	-2.235576294074929e-01	-1.242432160939194e+04	-3.374116706950676e+02	9.166910523889567e+01	1.208830032575260e+04	
117	1.100000000000000e+01	1.200000000000000e+01	-1.589115727813985e-02	-2.264740602985912e-01	-1.273299346403757e+04	-3.446112444017273e+02	9.051406214756702e+01	1.238970480687798e+04	
118	1.000000000000000e+01	1.200000000000000e+01	-1.460979254721709e-02	-2.291800947579535e-01	-1.303199732231786e+04	-3.508967494732544e+02	8.885954119166692e+01	1.268234583233098e+04	
119	9.000000000000000e+00	1.200000000000000e+01	-1.329981328045820e-02	-2.316714176738229e-01	-1.331848836755753e+04	-3.558843126840130e+02	8.672258763140303e+01	1.296376438818005e+04	
120	8.000000000000000e+00	1.200000000000000e+01	-1.196254073105791e-02	-2.339444752256652e-01	-1.358913097195632e+04	-3.589874278577095e+02	8.429740928233613e+01	1.323121772212599e+04	
121	7.000000000000000e+00	1.200000000000000e+01	-1.059962823138014e-02	-2.359969236250167e-01	-1.384016328095819e+04	-3.593538194732391e+02	8.212194884184521e+01	1.348180995989739e+04	
122	6.000000000000000e+00	1.200000000000000e+01	-9.213088420164281e-03	-2.378283725110223e-01	-1.406720795656201e+04	-3.551471907073550e+02	8.185237674755314e+01	1.371303794543016e+04	
123	5.000000000000000e+00	1.200000000000000e+01	-7.805329455108773e-03	-2.394419481791754e-01	-1.426735465043635e+04	-3.457048612481782e+02	8.661861172608212e+01	1.392272760591087e+04	
124	4.000000000000000e+00	1.200000000000000e+01	-6.378895221394179e-03	-2.408467694521697e-01	-1.443663081560455e+04	-3.179043588565198e+02	1.162133065467827e+02	1.412063946466133e+04	
125	3.000000000000000e+00	1.200000000000000e+01	-4.936186996109445e-03	-2.420705030440582e-01	-1.467641650610021e+04	-3.577389774339296e+02	1.911094853341072e+02	1.432377804601396e+04	
126	2.000000000000000e+00	1.200000000000000e+01	-3.464635995233681e-03	-2.431604698065842e-01	-1.555273834353011e+04	-3.655891417943724e+02	9.364965502207157e+02	1.530220912254449e+04	
127	1.000000000000000e+00	1.200000000000000e+01	-1.847525172987161e-03	-2.444985531156576e-01	-1.872327132718037e+04	-4.642742999053620e+03	1.560003642384565e+03	1.442205683861329e+04	
128	1.000000000000000e+00	1.100000000000000e+01	-1.175570204947369e-03	-2.445960874100324e-01	-1.355412785573209e+04	-3.563821545723719e+03	9.723504944443278e+02	1.017782305328490e+04	
129	2.000000000000000e+00	1.100000000000000e+01	-2.496232912765699e-03	-2.435900349260827e-01	-1.347629753492744e+04	-6.611408579839954e+02	9.723947464496282e+02	1.296188438562463e+04	
130	3.000000000000000e+00	1.100000000000000e+01	-3.831127505254341e-03	-2.424745990800761e-01	-1.308464361290592e+04	-2.731259475926374e+02	5.421412679475472e+02	1.285731906371937e+04	
131	4.000000000000000e+00	1.100000000000000e+01	-5.097214228204121e-03	-2.412474487606399e-01	-1.247174050343541e+04	-8.496787921983818e+01	3.143858248266381e+02	1.240272106561395e+04	
132	5.000000000000000e+00	1.100000000000000e+01	-6.321359673966202e-03	-2.398344885265952e-01	-1.208828747328888e+04	-2.600424777403545e+01	2.479731158037927e+02	1.207247444715385e+04	
133	6.000000000000000e+00	1.100000000000000e+01	-7.514906043098389e-03	-2.382136132143533e-01	-1.179495068887621e+04	-3.993453002777670e+00	2.263685146998712e+02	1.179964589960164e+04	
134	7.000000000000000e+00	1.100000000000000e+01	-8.682412450335074e-03	-2.363745233390070e-01	-1.153571274245801e+04	4.092257643675325e+00	2.231921261480841e+02	1.154843532003664e+04	
135	8.000000000000000e+00	1.100000000000000e+01	-9.825402411943405e-03	-2.343141199181937e-01	-1.128668830356400e+04	6.730911082105038e+00	2.265508353200740e+02	1.130250497375138e+04	
136	9.000000000000000e+00	1.100000000000000e+01	-1.094416251722371e-02	-2.320327467765655e-01	-1.103828608625701e+04	7.042961481291741e+00	2.320032365256615e+02	1.105507104363626e+04	
137	1.000000000000000e+01	1.100000000000000e+01	-1.203847849699142e-02	-2.295327804759465e-01	-1.078676738287641e+04	6.385761147237844e+00	2.375803138841889e+02	1.080360737959913e+04	
138	1.100000000000000e+01	1.100000000000000e+01	-1.310796286275497e-02	-2.268178210622276e-01	-1.053099250292910e+04	5.390238234736259e+00	2.424779839966435e+02	1.054753732200969e+04	
139	1.200000000000000e+01	1.100000000000000e+01	-1.415220315567708e-02	-2.238922350964716e-01	-1.027098384953952e+04	4.362362149095574e+00	2.464265235730222e+02	1.028715917521181e+04	
140	1.300000000000000e+01	1.100000000000000e+01	-1.517082662255877e-02	-2.207608712837020e-01	-1.000725321034613e+04	3.445980782638273e+00	2.494176206385537e+02	1.002312001789893e+04	
141	1.400000000000000e+01	1.100000000000000e+01	-1.616352387412100e-02	-2.174288788759571e-01	-9.740471776391292e+03	2.699216104038513e+00	2.515636196502919e+02	9.756152828237608e+03	
142	1.500000000000000e+01	1.100000000000000e+01	-1.713005224440008e-02	-2.139015895971929e-01	-9.471308814826043e+03	2.133843244412304e+00	2.530234367435999e+02	9.486948889601714e+03	
143	1.600000000000000e+01	1.100000000000000e+01	-1.807022959088871e-02	-2.101844410653532e-01	-9.200358126687801e+03	1.737375807470087e+00	2.539626976700006e+02	9.216102747055014e+03	
144	1.700000000000000e+01	1.100000000000000e+01	-1.898392428273166e-02	-2.062829278944373e-01	-8.928111398725490e+03	1.486032662833694e+00	2.545332946684840e+02	8.944096325456034e+03	
145	1.800000000000000e+01	1.100000000000000e+01	-1.987104444164656e-02	-2.022025713793808e-01	-8.654956269204893e+03	1.352409639380625e+00	2.548642723241432e+02	8.671303427551360e+03	
146	1.900000000000000e+01	1.100000000000000e+01	-2.073152798527862e-02	-1.979489015443888e-01	-8.381186540242508e+03	1.309859646514198e+00	2.550593367221704e+02	8.398003748221896e+03	
147	2.000000000000000e+01	1.100000000000000e+01	-2.156533415056978e-02	-1.935274472442000e-01	-8.107017316886082e+03	1.334771023270974e+00	2.551980662888710e+02	8.124400149774400e+03	
148	2.100000000000000e+01	1.100000000000000e+01	-2.237243667854413e-02	-1.889437313347378e-01	-7.832601005874267e+03	1.407520208289668e+00	2.553389819192705e+02	7.850635743013712e+03	
149	2.200000000000000e+01	1.100000000000000e+01	-2.315281857353342e-02	-1.842032688756312e-01	-7.558042015727632e+03	1.512630232208252e+00	2.555233359095298e+02	7.576809034549462e+03	
150	2.300000000000000e+01	1.100000000000000e+01	-2.390646821986448e-02	-1.793115670039922e-01	-7.283409155871228e+03	1.638503317650489e+00	2.557789560158283e+02	7.302986436658331e+03	
151	2.400000000000000e+01	1.100000000000000e+01	-2.463337659092132e-02	-1.742741255985649e-01	-7.008745404804586e+03	1.776975294507267e+00	2.561238049555006e+02	7.029212022391256e+03	
152	2.500000000000000e+01	1.100000000000000e+01	-2.533353528222845e-02	-1.690964381869646e-01	-6.734075074815600e+03	1.922853897939675e+00	2.565691304090997e+02	6.755514708025483e+03	
153	2.600000000000000e+01	1.100000000000000e+01	-2.600693511819372e-02	-1.637839927765319e-01	-6.459408558126228e+03	2.073536943661864e+00	2.571222168547531e+02	6.481913159130565e+03	
154	2.700000000000000e+01	1.100000000000000e+01	-2.665356510615608e-02	-1.583422724435922e-01	-6.184744873589415e+03	2.228759791439238e+00	2.577888270559505e+02	6.208418724407160e+03	
155	2.800000000000000e+01	1.100000000000000e+01	-2.727341153315889e-02	-1.527767556242685e-01	-5.910072198683912e+03	2.390484748844322e+00	2.585754548059915e+02	5.935036650796469e+03	
156	2.900000000000000e+01	1.100000000000000e+01	-2.786645701585530e-02	-1.470929161359095e-01	-5.635366517426185e+03	2.562910841620834e+00	2.594915059990706e+02	5.661765767397201e+03	
157	3.000000000000000e+01	1.100000000000000e+01	-2.843267932265477e-02	-1.412962230437894e-01	-5.360588477547995e+03	2.752544359375367e+00	2.605514853616437e+02	5.388596776840055e+03	
158	3.100000000000000e+01	1.100000000000000e+01	-2.897204979219676e-02	-1.353921405939215e-01	-5.085678572666751e+03	2.968216744495230e+00	2.617771770646461e+02	5.115509291274245e+03	
159	3.200000000000000e+01	1.100000000000000e+01	-2.948453118189186e-02	-1.293861285813901e-01	-4.810550898283480e+03	3.220859584661945e+00	2.631996569425639e+02	4.842467839284808e+03	
160	3.300000000000000e+01	1.100000000000000e+01	-2.997007480713161e-02	-1.232836437369865e-01	-4.535086046227309e+03	3.522731726213536e+00	2.648607277262818e+02	4.569417299796939e+03	
161	3.400000000000000e+01	1.100000000000000e+01	-3.042861689707478e-02	-1.170901430142498e-01	-4.259124280505703e+03	3.885639551663260e+00	2.668129961853816e+02	4.296278654631376e+03	
162	3.500000000000000e+01	1.100000000000000e+01	-3.086007422665521e-02	-1.108110900595195e-01	-3.982461093564593e+03	4.317497038301667e+00	2.691172755444007e+02	4.022946676563756e+03	
163	3.600000000000000e+01	1.100000000000000e+01	-3.126433932917063e-02	-1.044519666467093e-01	-3.704848672612992e+03	4.816378308682900e+00	2.718352876143221e+02	3.749292264467944e+03	
164	3.700000000000000e+01	1.100000000000000e+01	-3.164127600405919e-02	-9.801829141446443e-02	-3.426008778544215e+03	5.361113622979776e+00	2.750148124744955e+02	3.475173653962206e+03	
165	3.800000000000000e+01	1.100000000000000e+01	-3.199071647053697e-02	-9.151564874019441e-02	-3.145664984783646e+03	5.897681611590487e+00	2.786636972923004e+02	3.200462632959603e+03	
166	3.900000000000000e+01	1.100000000000000e+01	-3.231246243392672e-02	-8.494973078034429e-02	-2.863604767540608e+03	6.321525947893827e+00	2.827089700941940e+02	2.925093909115318e+03	
167	4.000000000000000e+01	1.100000000000000e+01	-3.260629353808940e-02	-7.832639517151341e-02	-2.579783714522180e+03	6.457994921323355e+00	2.869385965965545e+02	2.649147261390438e+03	
168	4.100000000000000e+01	1.100000000000000e+01	-3.287198808263728e-02	-7.165173898324599e-02	-2.294483465095119e+03	6.046776374941857e+00	2.909274573888666e+02	2.372971667291732e+03	
169	4.200000000000000e+01	1.100000000000000e+01	-3.310936219082515e-02	-6.493218547320616e-02	-2.008529229106055e+03	4.741051591563338e+00	2.939570480844033e+02	2.097355527232865e+03	
170	4.300000000000000e+01	1.100000000000000e+01	-3.331833416235659e-02	-5.817457350329371e-02	-1.723559028106260e+03	2.134854691136023e+00	2.949497247480348e+02	1.823732638749474e+03	
171	4.400000000000000e+01	1.100000000000000e+01	-3.349901947074954e-02	-5.138623056830915e-02	-1.442313690906857e+03	-2.173640445044301e+00	2.924478365816897e+02	1.554382936547296e+03	
172	4.500000000000000e+01	1.100000000000000e+01	-3.365185742390799e-02	-4.457500148325810e-02	-1.168888743723683e+03	-8.496657926696255e+00	2.846655120093112e+02	1.292535340983129e+03	
173	4.600000000000000e+01	1.100000000000000e+01	-3.377776234675493e-02	-3.774919930773047e-02	-9.088657844605063e+02	-1.699158732091753e+01	2.696163758694354e+02	1.042214730308136e+03	
174	4.700000000000000e+01	1.100000000000000e+01	-3.387828130311628e-02	-3.091744390652635e-02	-6.692249802950130e+02	-2.765240976898106e+01	2.452909208203502e+02	8.076421897096272e+02	
175	4.800000000000000e+01	1.100000000000000e+01	-3.395572949687826e-02	-2.408834589519565e-02	-4.578963937493758e+02	-4.026711960251890e+01	2.098968319562191e+02	5.921494160137792e+02	
176	4.900000000000000e+01	1.100000000000000e+01	-3.401326265452526e-02	-1.726994716415463e-02	-2.826687654339919e+02	-5.389500507463717e+01	1.624575995575978e+02	3.973755403205218e+02	
177	5.000000000000000e+01	1.100000000000000e+01	-3.405482827128799e-02	-1.046868212616891e-02	-1.493342028517293e+02	-6.477280994195087e+01	1.047684600537439e+02	2.259565224970805e+02	
178	5.100000000000000e+01	1.100000000000000e+01	-3.408499538566507e-02	-3.687364202756308e-03	-6.259836721535110e+01	-6.057829876632879e+01	4.698596779167249e+01	9.399364528423757e+01	
179	1.000000000000000e+00	1.000000000000000e+01	-8.871979275046351e-04	-2.445992161807709e-01	-1.020743369876905e+04	-3.151036979306828e+03	1.002077013095462e+03	7.335486897482303e+03	
180	2.000000000000000e+00	1.000000000000000e+01	-1.851866977087252e-03	-2.438361614760954e-01	-1.035423825418861e+04	-1.312265524593073e+03	1.204651782181864e+03	9.357457694694922e+03	
181	3.000000000000000e+00	1.000000000000000e+01	-2.879159809119625e-03	-2.427999759225545e-01	-1.040945091759930e+04	-4.624984187281195e+02	9.282168663907718e+02	1.011870595575387e+04	
182	4.000000000000000e+00	1.000000000000000e+01	-3.906372630869633e-03	-2.415766700409651e-01	-1.018351232412222e+04	-1.950438961577015e+02	6.744223099436377e+02	1.007913108085428e+04	
183	5.000000000000000e+00	1.000000000000000e+01	-4.905086210174933e-03	-2.401600477315578e-01	-9.862649976441277e+03	-7.366901176035969e+01	5.410435711290334e+02	9.848607054316137e+03	
184	6.000000000000000e+00	1.000000000000000e+01	-5.876038919927015e-03	-2.385325642852351e-01	-9.579476862250593e+03	-2.161597080647161e+01	4.861685497640805e+02	9.607192319055339e+03	
185	7.000000000000000e+00	1.000000000000000e+01	-6.821948530025067e-03	-2.366863558621022e-01	-9.328434361745763e+03	1.116374164133262e+00	4.673320459026527e+02	9.376252657561396e+03	
186	8.000000000000000e+00	1.000000000000000e+01	-7.744849156485784e-03	-2.346185704769736e-01	-9.096937233750119e+03	1.024229289510299e+01	4.652549980054243e+02	9.154592715310824e+03	
187	9.000000000000000e+00	1.000000000000000e+01	-8.645884876127009e-03	-2.323296574145069e-01	-8.875536479990460e+03	1.297337640682117e+01	4.702218871748157e+02	8.938122955071976e+03	
188	1.000000000000000e+01	1.000000000000000e+01	-9.525629336700168e-03	-2.298220174879690e-01	-8.658752929612949e+03	1.272562314378391e+01	4.775626294714198e+02	8.723921397582089e+03	
189	1.100000000000000e+01	1.000000000000000e+01	-1.038433028161982e-02	-2.270992716569443e-01	-8.443617856795550e+03	1.121525200475934e+01	4.850258403886295e+02	8.510299827917033e+03	
190	1.200000000000000e+01	1.000000000000000e+01	-1.122206404450466e-02	-2.241658063841396e-01	-8.228633485452927e+03	9.321552424766864e+00	4.916134147488730e+02	8.296423217528061e+03	
191	1.300000000000000e+01	1.000000000000000e+01	-1.203882451441762e-02	-2.210264897566529e-01	-8.013123042553181e+03	7.487275803029533e+00	4.969765308392729e+02	8.081963410443175e+03	
192	1.400000000000000e+01	1.000000000000000e+01	-1.283457199958299e-02	-2.176864883585282e-01	-7.796851825216556e+03	5.916702081778396e+00	5.010987018569625e+02	7.866866995609393e+03	
193	1.500000000000000e+01	1.000000000000000e+01	-1.360925849277270e-02	-2.141511484770312e-01	-7.579809547279041e+03	4.681873934684219e+00	5.041209878366132e+02	7.651213106427898e+03	
194	1.600000000000000e+01	1.000000000000000e+01	-1.436283950035690e-02	-2.104259194071265e-01	-7.362087790718855e+03	3.783074568067676e+00	5.062450051555818e+02	7.435132118870695e+03	
195	1.700000000000000e+01	1.000000000000000e+01	-1.509527849633060e-02	-2.065163048453919e-01	-7.143813150220427e+03	3.184553387601454e+00	5.076801841916320e+02	7.218762556911109e+03	
196	1.800000000000000e+01	1.000000000000000e+01	-1.580654755912610e-02	-2.024278330457066e-01	-6.925112823816449e+03	2.835772595189340e+00	5.086170577195455e+02	7.002230858814578e+03	
197	1.900000000000000e+01	1.000000000000000e+01	-1.649662623154585e-02	-1.981660393700215e-01	-6.706098797612105e+03	2.683714444187260e+00	5.092158988403636e+02	6.785644119801710e+03	
198	2.000000000000000e+01	1.000000000000000e+01	-1.716549973222015e-02	-1.937364568417320e-01	-6.486862339756313e+03	2.679536762292656e+00	5.096041851592689e+02	6.569089698673326e+03	
199	2.100000000000000e+01	1.000000000000000e+01	-1.781315710532408e-02	-1.891446116840351e-01	-6.267473868969319e+03	2.781683271047413e+00	5.098788257882613e+02	6.352638062911346e+03	
200	2.200000000000000e+01	1.000000000000000e+01	-1.843958958050852e-02	-1.843960218002982e-01	-6.047985303659119e+03	2.956859358136882e+00	5.101106450319820e+02	6.136346840008290e+03	
201	2.300000000000000e+01	1.000000000000000e+01	-1.904478923846938e-02	-1.794961968454434e-01	-5.828433244593678e+03	3.179827310099753e+00	5.103496375268863e+02	5.920265030426789e+03	
202	2.400000000000000e+01	1.000000000000000e+01	-1.962874798332619e-02	-1.744506390226237e-01	-5.608842095691449e+03	3.432658176946347e+00	5.106301852605519e+02	5.704436927279104e+03	
203	2.500000000000000e+01	1.000000000000000e+01	-2.019145677721028e-02	-1.692648440736672e-01	-5.389226674272487e+03	3.703848388853942e+00	5.109758673084256e+02	5.488905625909295e+03	
204	2.600000000000000e+01	1.000000000000000e+01	-2.073290507309188e-02	-1.639443021568428e-01	-5.169594114465131e+03	3.987547405377008e+00	5.114037698666436e+02	5.273716192153127e+03	
205	2.700000000000000e+01	1.000000000000000e+01	-2.125308037640080e-02	-1.584944984561545e-01	-4.949945005809734e+03	4.283023165078852e+00	5.119283623268161e+02	5.058918654781683e+03	
206	2.800000000000000e+01	1.000000000000000e+01	-2.175196786672553e-02	-1.529209134702839e-01	-4.730273776042086e+03	4.594403373278453e+00	5.125650792768363e+02	4.844571035542410e+03	
207	2.900000000000000e+01	1.000000000000000e+01	-2.222955001380832e-02	-1.472290230106579e-01	-4.510568372381906e+03	4.930648673838867e+00	5.133337511523215e+02	4.630742658520752e+03	
208	3.000000000000000e+01	1.000000000000000e+01	-2.268580612573294e-02	-1.414242980187003e-01	-4.290809325067438e+03	5.305627056739375e+00	5.142619636143414e+02	4.417517985333714e+03	
209	3.100000000000000e+01	1.000000000000000e+01	-2.312071177172034e-02	-1.355122044128375e-01	-4.070968336900142e+03	5.738040023482718e+00	5.153882848618481e+02	4.205001215260360e+03	
210	3.200000000000000e+01	1.000000000000000e+01	-2.353423802968262e-02	-1.294982033178181e-01	-3.851006636576670e+03	6.250783526314670e+00	5.167650561282710e+02	3.993321837503278e+03	
211	3.300000000000000e+01	1.000000000000000e+01	-2.392635052215223e-02	-1.233877522345323e-01	-3.630873492145485e+03	6.869086642567524e+00	5.184600538679319e+02	3.782641190934518e+03	
212	3.400000000000000e+01	1.000000000000000e+01	-2.429700822973021e-02	-1.171863079996127e-01	-3.410505531980766e+03	7.616442988288320e+00	5.205557539230136e+02	3.573159807164490e+03	
213	3.500000000000000e+01	1.000000000000000e+01	-2.464616211559152e-02	-1.108993327782714e-01	-3.189827888249523e+03	8.506943778191307e+00	5.231441089843929e+02	3.365124772251699e+03	
214	3.600000000000000e+01	1.000000000000000e+01	-2.497375367078758e-02	-1.045323048346531e-01	-2.968758705504177e+03	9.532203252268211e+00	5.263136712411089e+02	3.158835396047485e+03	
215	3.700000000000000e+01	1.000000000000000e+01	-2.527971361788430e-02	-9.809073640400917e-02	-2.747219317568629e+03	1.064081717821377e+01	5.301246188374337e+02	2.954643966506965e+03	
216	3.800000000000000e+01	1.000000000000000e+01	-2.556396122743063e-02	-9.158020156190290e-02	-2.525153499361457e+03	1.170861575843025e+01	5.345660272406935e+02	2.752946192908633e+03	
217	3.900000000000000e+01	1.000000000000000e+01	-2.582640507627876e-02	-8.500637735177097e-02	-2.302560851562875e+03	1.249959696072833e+01	5.394891867841077e+02	2.554153325653379e+03	
218	4.000000000000000e+01	1.000000000000000e+01	-2.606694672856566e-02	-7.837510122999149e-02	-2.079551765254802e+03	1.262148001544979e+01	5.445121253241020e+02	2.358635772374476e+03	
219	4.100000000000000e+01	1.000000000000000e+01	-2.628548992363431e-02	-7.169244651168440e-02	-1.856434254296701e+03	1.148759002126839e+01	5.488958032787247e+02	2.166628354819587e+03	
220	4.200000000000000e+01	1.000000000000000e+01	-2.648195954493775e-02	-6.496481408293844e-02	-1.633844448782669e+03	8.308277799302616e+00	5.514046400260897e+02	1.978093497686551e+03	
221	4.300000000000000e+01	1.000000000000000e+01	-2.665633672922249e-02	-5.819903209013930e-02	-1.412925780693820e+03	2.146939209536819e+00	5.501851844288522e+02	1.792552858711487e+03	
222	4.400000000000000e+01	1.000000000000000e+01	-2.680871749507946e-02	-5.140244498280368e-02	-1.195536994409655e+03	-7.927453282775465e+00	5.427245907374938e+02	1.608917756673820e+03	
223	4.500000000000000e+01	1.000000000000000e+01	-2.693939912999476e-02	-4.458296013217328e-02	-9.844159000053768e+02	-2.259753690791632e+01	5.259670818193226e+02	1.425363128547113e+03	
224	4.600000000000000e+01	1.000000000000000e+01	-2.704898660610391e-02	-3.774900901589345e-02	-7.831639255088694e+02	-4.205428867504767e+01	4.966436827922299e+02	1.239299513611490e+03	
225	4.700000000000000e+01	1.000000000000000e+01	-2.713849077223384e-02	-3.090937787516073e-02	-5.959042226833519e+02	-6.589457287732824e+01	4.517868061157642e+02	1.047547374398235e+03	
226	4.800000000000000e+01	1.000000000000000e+01	-2.720937270973994e-02	-2.407287248339718e-02	-4.266174289842588e+02	-9.313160066139800e+01	3.893338379606054e+02	8.470750540635254e+02	
227	4.900000000000000e+01	1.000000000000000e+01	-2.726350873294052e-02	-1.724778679886710e-02	-2.786481851232775e+02	-1.216582455089268e+02	3.088355872372933e+02	6.373095958142578e+02	
228	5.000000000000000e+01	1.000000000000000e+01	-2.730316870205693e-02	-1.044112352447582e-02	-1.560157605112929e+02	-1.453076692846900e+02	2.126048434611006e+02	4.253444969318325e+02	
229	5.100000000000000e+01	1.000000000000000e+01	-2.733141891551885e-02	-3.657540392109997e-03	-7.003093290241941e+01	-1.450729212680076e+02	1.070769042390060e+02	2.269210296634009e+02	
230	1.000000000000000e+00	9.000000000000000e+00	-6.410456806703027e-04	-2.445784897170222e-01	-7.381059135554134e+03	-2.513457929471833e+03	7.169985114850033e+02	5.074434841767179e+03	
231	2.000000000000000e+00	9.000000000000000e+00	-1.325115551283682e-03	-2.439483569821241e-01	-7.536480961890601e+03	-1.523443532977688e+03	1.066742892518104e+03	6.380311960747624e+03	
232	3.000000000000000e+00	9.000000000000000e+00	-2.056889917359135e-03	-2.430056568791932e-01	-7.649718013276767e+03	-7.375840237070295e+02	1.052332753695966e+03	7.225455915564817e+03	
233	4.000000000000000e+00	9.000000000000000e+00	-2.811166027203145e-03	-2.418179391957291e-01	-7.622065006500124e+03	-3.319778610721545e+02	9.080336619666145e+02	7.512887002543837e+03	
234	5.000000000000000e+00	9.000000000000000e+00	-3.562275766566059e-03	-2.404094018520525e-01	-7.470864711956467e+03	-1.446997925597015e+02	7.871063976956672e+02	7.493386307362887e+03	
235	6.000000000000000e+00	9.000000000000000e+00	-4.298166995185192e-03	-2.387812301188851e-01	-7.273463323778717e+03	-5.270018354853090e+01	7.170169948836201e+02	7.361784689266227e+03	
236	7.000000000000000e+00	9.000000000000000e+00	-5.016017736168071e-03	-2.369307990526215e-01	-7.075018949935929e+03	-8.783614004552973e+00	6.842207765440476e+02	7.197521386351233e+03	
237	8.000000000000000e+00	9.000000000000000e+00	-5.715638293687847e-03	-2.348574062517206e-01	-6.884871252126908e+03	1.103469586488798e+01	6.726779520443731e+02	7.025916406577515e+03	
238	9.000000000000000e+00	9.000000000000000e+00	-6.397512957975706e-03	-2.325622807360160e-01	-6.703083026049200e+03	1.852839210620573e+01	6.721593618936533e+02	6.854724858650583e+03	
239	1.000000000000000e+01	9.000000000000000e+00	-7.062168281346457e-03	-2.300481630850308e-01	-6.527540055372425e+03	1.984540150812008e+01	6.766524959484766e+02	6.685782730695342e+03	
240	1.100000000000000e+01	9.000000000000000e+00	-7.710030166481981e-03	-2.273188276804649e-01	-6.356228072505690e+03	1.826527677407643e+01	6.828632529414447e+02	6.519154419775854e+03	
241	1.200000000000000e+01	9.000000000000000e+00	-8.341413502277198e-03	-2.243787358114478e-01	-6.187646755087349e+03	1.555893962641564e+01	6.890906313708169e+02	6.354458630276966e+03	
242	1.300000000000000e+01	9.000000000000000e+00	-8.956544092827895e-03	-2.212327923555656e-01	-6.020775902687792e+03	1.266462145499800e+01	6.945513585610582e+02	6.191285078001534e+03	
243	1.400000000000000e+01	9.000000000000000e+00	-9.555582418672765e-03	-2.178861810658065e-01	-5.854950305567687e+03	1.004839044970815e+01	6.989734294641482e+02	6.029300550202587e+03	
244	1.500000000000000e+01	9.000000000000000e+00	-1.013864240366195e-02	-2.143442547171731e-01	-5.689746713739163e+03	7.906501485457071e+00	7.023553242186274e+02	5.868259040532589e+03	
245	1.600000000000000e+01	9.000000000000000e+00	-1.070580486782102e-02	-2.106124633188451e-01	-5.524900565684935e+03	6.284209181577069e+00	7.048243292690846e+02	5.707986891561120e+03	
246	1.700000000000000e+01	9.000000000000000e+00	-1.125712687036920e-02	-2.066963084013728e-01	-5.360249265498833e+03	5.147266355799516e+00	7.065552766939661e+02	5.548365649462377e+03	
247	1.800000000000000e+01	9.000000000000000e+00	-1.179264816991210e-02	-2.026013149349075e-01	-5.195694876172526e+03	4.425028400671565e+00	7.077262056417496e+02	5.389318375318592e+03	
248	1.900000000000000e+01	9.000000000000000e+00	-1.231239572656437e-02	-1.983330149320782e-01	-5.031180000836278e+03	4.035812423330398e+00	7.084964356218331e+02	5.230799851194364e+03	
249	2.000000000000000e+01	9.000000000000000e+00	-1.281638687539331e-02	-1.938969385837650e-01	-4.866672321819026e+03	3.900988499220730e+00	7.089979091735250e+02	5.072789815479660e+03	
250	2.100000000000000e+01	9.000000000000000e+00	-1.330463158533736e-02	-1.892986100693513e-01	-4.702154739380111e+03	3.951982637086203e+00	7.093340288335548e+02	4.915288347275306e+03	
251	2.200000000000000e+01	9.000000000000000e+00	-1.377713407718764e-02	-1.845435461131224e-01	-4.537619115708464e+03	4.132980177928815e+00	7.095823902998955e+02	4.758312807601375e+03	
252	2.300000000000000e+01	9.000000000000000e+00	-1.423389398656248e-02	-1.796372560195902e-01	-4.373062342989613e+03	4.401202474841469e+00	7.097992429159758e+02	4.601896017170163e+03	
253	2.400000000000000e+01	9.000000000000000e+00	-1.467490720390327e-02	-1.745852423816925e-01	-4.208483918612027e+03	4.725997727953882e+00	7.100244504845350e+02	4.446085545768211e+03	
254	2.500000000000000e+01	9.000000000000000e+00	-1.510016648966885e-02	-1.693930019707596e-01	-4.043884509790858e+03	5.087538232258467e+00	7.102863319176522e+02	4.290944108108220e+03	
255	2.600000000000000e+01	9.000000000000000e+00	-1.550966194130559e-02	-1.640660265272347e-01	-3.879265183321476e+03	5.475602589556907e+00	7.106061412382309e+02	4.136551139002470e+03	
256	2.700000000000000e+01	9.000000000000000e+00	-1.590338137415585e-02	-1.586098033098863e-01	-3.714627109727058e+03	5.888692993781511e+00	7.110021678994324e+02	3.983005670260371e+03	
257	2.800000000000000e+01	9.000000000000000e+00	-1.628131066929598e-02	-1.530298153556564e-01	-3.549971641658501e+03	6.333569722067743e+00	7.114935442520472e+02	3.830430656015320e+03	
258	2.900000000000000e+01	9.000000000000000e+00	-1.664343413480614e-02	-1.473315414747065e-01	-3.385300732151209e+03	6.825137033360051e+00	7.121038681014508e+02	3.678978878473124e+03	
259	3.000000000000000e+01	9.000000000000000e+00	-1.698973492185213e-02	-1.415204560754473e-01	-3.220617705210948e+03	7.386458557413981e+00	7.128646882439405e+02	3.528840480425037e+03	
260	3.100000000000000e+01	9.000000000000000e+00	-1.732019553041089e-02	-1.356020290008711e-01	-3.055928415478544e+03	8.048479529306562e+00	7.138187569580255e+02	3.380251955739741e+03	
261	3.200000000000000e+01	9.000000000000000e+00	-1.763479842701765e-02	-1.295817256789946e-01	-2.891242824049421e+03	8.848752400304789e+00	7.150226996144739e+02	3.233505991281064e+03	
262	3.300000000000000e+01	9.000000000000000e+00	-1.793352677193947e-02	-1.234650080661893e-01	-2.726576961797346e+03	9.828064561211370e+00	7.165483562978749e+02	3.088960772805819e+03	
263	3.400000000000000e+01	9.000000000000000e+00	-1.821636520598181e-02	-1.172573371122847e-01	-2.561955122150347e+03	1.102332826347634e+01	7.184814587135662e+02	2.947046068923019e+03	
264	3.500000000000000e+01	9.000000000000000e+00	-1.848330056497909e-02	-1.109641778193469e-01	-2.397411903128200e+03	1.245441957088968e+01	7.209154662610679e+02	2.808261407215660e+03	
265	3.600000000000000e+01	9.000000000000000e+00	-1.873432225970398e-02	-1.045910084143934e-01	-2.232993427400331e+03	1.410192982671842e+01	7.239372445396738e+02	2.673158820683526e+03	
266	3.700000000000000e+01	9.000000000000000e+00	-1.896942187765337e-02	-9.814333570852855e-02	-2.068756816733411e+03	1.587227519910099e+01	7.275998166166862e+02	2.542299042892852e+03	
267	3.800000000000000e+01	9.000000000000000e+00	-1.918859135579348e-02	-9.162671934063381e-02	-1.904767139931329e+03	1.754685493683761e+01	7.318757357001125e+02	2.416166274264321e+03	
268	3.900000000000000e+01	9.000000000000000e+00	-1.939181894077176e-02	-8.504680821697271e-02	-1.741092338419071e+03	1.871404249417589e+01	7.365830538333066e+02	2.295024374397924e+03	
269	4.000000000000000e+01	9.000000000000000e+00	-1.957908233605851e-02	-7.840939286471192e-02	-1.577800370514447e+03	1.868856107209473e+01	7.412752785259402e+02	2.178699856082333e+03	
270	4.100000000000000e+01	9.000000000000000e+00	-1.975033940416508e-02	-7.172047721479172e-02	-1.414970756883700e+03	1.643471229054296e+01	7.450893159574550e+02	2.066289905167648e+03	
271	4.200000000000000e+01	9.000000000000000e+00	-1.990551928297152e-02	-6.498637164088093e-02	-1.252744862649119e+03	1.053068735686493e+01	7.465556484691115e+02	1.955823729349725e+03	
272	4.300000000000000e+01	9.000000000000000e+00	-2.004452141471530e-02	-5.821380430562197e-02	-1.091451584999574e+03	-7.616178115344905e-01	7.434020891603343e+02	1.843960755872110e+03	
273	4.400000000000000e+01	9.000000000000000e+00	-2.016723654079106e-02	-5.141003678783204e-02	-9.318301098470035e+02	-1.923133716568199e+01	7.324346539090036e+02	1.725884877066446e+03	
274	4.500000000000000e+01	9.000000000000000e+00	-2.027360679927600e-02	-4.458295023404638e-02	-7.753043355200832e+02	-4.620520154297012e+01	7.096547317448207e+02	1.595626804837970e+03	
275	4.600000000000000e+01	9.000000000000000e+00	-2.036373279995058e-02	-3.774104246382149e-02	-6.241260309267464e+02	-8.188263221900031e+01	6.707935413418586e+02	1.447025847684116e+03	
276	4.700000000000000e+01	9.000000000000000e+00	-2.043800203486365e-02	-3.089326441093701e-02	-4.811393900178266e+02	-1.248841971358057e+02	6.123048297553489e+02	1.275377034693001e+03	
277	4.800000000000000e+01	9.000000000000000e+00	-2.049717483927220e-02	-2.404865961654877e-02	-3.491686963414321e+02	-1.723816276460772e+02	5.324353885385127e+02	1.079445894674913e+03	
278	4.900000000000000e+01	9.000000000000000e+00	-2.054238088817919e-02	-1.721587950716313e-02	-2.308210563645706e+02	-2.202979853677269e+02	4.315404224872041e+02	8.631449936047496e+02	
279	5.000000000000000e+01	9.000000000000000e+00	-2.057515264245182e-02	-1.040280780221599e-02	-1.304154508004195e+02	-2.610513770970348e+02	3.106588484854670e+02	6.349026900310315e+02	
280	5.100000000000000e+01	9.000000000000000e+00	-2.059794376509208e-02	-3.616700149720282e-03	-5.913710658913230e+01	-2.747348655991385e+02	1.674907925154820e+02	3.983654804322202e+02	
281	1.000000000000000e+00	8.000000000000000e+00	-4.049551205773788e-04	-2.445394401652995e-01	-4.759479496629147e+03	-1.951066445438140e+03	5.349570411725657e+02	3.005311965453903e+03	
282	2.000000000000000e+00	8.000000000000000e+00	-8.347241567125224e-04	-2.439832428850968e-01	-4.882535178015148e+03	-1.399105970781984e+03	8.855572415474305e+02	3.907828751881720e+03	
283	3.000000000000000e+00	8.000000000000000e+00	-1.297597653160424e-03	-2.431104719505970e-01	-4.998932820627597e+03	-8.402804779995512e+02	1.011053770186691e+03	4.624208928203896e+03	
284	4.000000000000000e+00	8.000000000000000e+00	-1.784511349018098e-03	-2.419660524642119e-01	-5.042910890870495e+03	-4.453075382025527e+02	9.946231455858633e+02	5.009496720769859e+03	
285	5.000000000000000e+00	8.000000000000000e+00	-2.280352732073972e-03	-2.405771759922580e-01	-5.001456735158436e+03	-2.153720073236687e+02	9.348037932794227e+02	5.138291501046976e+03	
286	6.000000000000000e+00	8.000000000000000e+00	-2.773360276056757e-03	-2.389555161998658e-01	-4.901430835116773e+03	-9.095248304618812e+01	8.830479586476531e+02	5.124431360143960e+03	
287	7.000000000000000e+00	8.000000000000000e+00	-3.257346416246269e-03	-2.371053518304118e-01	-4.775543038271782e+03	-2.560882232927459e+01	8.509600591390615e+02	5.045632482135534e+03	
288	8.000000000000000e+00	8.000000000000000e+00	-3.729869144199229e-03	-2.350291929673685e-01	-4.643343626355179e+03	6.575081185487520e+00	8.352118513698415e+02	4.940856133648421e+03	
289	9.000000000000000e+00	8.000000000000000e+00	-4.190200702843030e-03	-2.327298551138562e-01	-4.512560554665146e+03	2.051811022857726e+01	8.299175730201615e+02	4.827406642716704e+03	
290	1.000000000000000e+01	8.000000000000000e+00	-4.638335344429548e-03	-2.302108505505057e-01	-4.385600881775166e+03	2.467963738066825e+01	8.304088526928949e+02	4.712630869076040e+03	
291	1.100000000000000e+01	8.000000000000000e+00	-5.074529396176055e-03	-2.274763440790867e-01	-4.262681968582614e+03	2.390302078336123e+01	8.336024326893379e+02	4.599389408845485e+03	
292	1.200000000000000e+01	8.000000000000000e+00	-5.499105665704013e-03	-2.245309948347586e-01	-4.143273468801529e+03	2.094261317466612e+01	8.376741975347877e+02	4.488595306134356e+03	
293	1.300000000000000e+01	8.000000000000000e+00	-5.912373634880176e-03	-2.213798054265314e-01	-4.026670406354229e+03	1.732782572386451e+01	8.416474912522696e+02	4.380342874613322e+03	
294	1.400000000000000e+01	8.000000000000000e+00	-6.314600508707634e-03	-2.180280033740862e-01	-3.912206995743751e+03	1.386103257501405e+01	8.450727766608547e+02	4.274412492308147e+03	
295	1.500000000000000e+01	8.000000000000000e+00	-6.706004219741693e-03	-2.144809560176835e-01	-3.799322991325080e+03	1.091494972121296e+01	8.478064170458696e+02	4.170493502036098e+03	
296	1.600000000000000e+01	8.000000000000000e+00	-7.086755725914918e-03	-2.107441126275083e-01	-3.687573114708962e+03	8.614517109983680e+00	8.498680027623986e+02	4.068280410454611e+03	
297	1.700000000000000e+01	8.000000000000000e+00	-7.456984911692689e-03	-2.068229667398864e-01	-3.576615957548664e+03	6.949377947725949e+00	8.513528168043324e+02	3.967511435206462e+03	
298	1.800000000000000e+01	8.000000000000000e+00	-7.816787481045740e-03	-2.027230327400958e-01	-3.466196910703727e+03	5.842967670726196e+00	8.523810445533625e+02	3.867980700246320e+03	
299	1.900000000000000e+01	8.000000000000000e+00	-8.166231630323930e-03	-1.984498320766213e-01	-3.356130766097061e+03	5.193833194927066e+00	8.530704994711550e+02	3.769538455842746e+03	
300	2.000000000000000e+01	8.000000000000000e+00	-8.505363963023892e-03	-1.940088857362056e-01	-3.246286083091647e+03	4.899090742178885e+00	8.535238151540652e+02	3.672086143692368e+03	
301	2.100000000000000e+01	8.000000000000000e+00	-8.834214453356491e-03	-1.894057106143709e-01	-3.136571983321648e+03	4.866563085508758e+00	8.538241127649152e+02	3.575569689295384e+03	
302	2.200000000000000e+01	8.000000000000000e+00	-9.152800450309620e-03	-1.846458181773019e-01	-3.026927453758296e+03	5.019995662664314e+00	8.540353093237241e+02	3.479972783562674e+03	
303	2.300000000000000e+01	8.000000000000000e+00	-9.461129812493540e-03	-1.797347143630414e-01	-2.917312998339428e+03	5.300306332933630e+00	8.542047102125640e+02	3.385311104824078e+03	
304	2.400000000000000e+01	8.000000000000000e+00	-9.759203312902694e-03	-1.746779000566370e-01	-2.807704384529211e+03	5.664819743114691e+00	8.543665162637726e+02	3.291627994776852e+03	
305	2.500000000000000e+01	8.000000000000000e+00	-1.004701647166918e-02	-1.694808717363810e-01	-2.698088212885259e+03	6.085730283017696e+00	8.545455166765042e+02	3.198991852943349e+03	
306	2.600000000000000e+01	8.000000000000000e+00	-1.032456097692136e-02	-1.641491220618920e-01	-2.588459062640414e+03	6.548542701144612e+00	8.547606380945775e+02	3.107495368544244e+03	
307	2.700000000000000e+01	8.000000000000000e+00	-1.059182584749674e-02	-1.586881402878197e-01	-2.478818011048480e+03	7.050889578126267e+00	8.550282554601725e+02	3.017256611831946e+03	
308	2.800000000000000e+01	8.000000000000000e+00	-1.084879848110875e-02	-1.531034124623916e-01	-2.369172381201036e+03	7.601866257047313e+00	8.553652884270803e+02	2.928421918024058e+03	
309	2.900000000000000e+01	8.000000000000000e+00	-1.109546572072498e-02	-1.474004214260249e-01	-2.259536623528757e+03	8.221805930656096e+00	8.557921430209037e+02	2.841170368459004e+03	
310	3.000000000000000e+01	8.000000000000000e+00	-1.133181505859530e-02	-1.415846466774759e-01	-2.149934259116686e+03	8.942194734675290e+00	8.563355239292767e+02	2.755719445293143e+03	
311	3.100000000000000e+01	8.000000000000000e+00	-1.155783607776159e-02	-1.356615642372473e-01	-2.040400787891582e+03	9.805149081052114e+00	8.570310382327372e+02	2.672331039743199e+03	
312	3.200000000000000e+01	8.000000000000000e+00	-1.177352219591546e-02	-1.296366467239382e-01	-1.930987353684209e+03	1.086149523069570e+01	8.579253258138597e+02	2.591316347095315e+03	
313	3.300000000000000e+01	8.000000000000000e+00	-1.197887271169397e-02	-1.235153639828142e-01	-1.821764710447651e+03	1.216595796206092e+01	8.590771596249583e+02	2.513037198548966e+03	
314	3.400000000000000e+01	8.000000000000000e+00	-1.217389503763418e-02	-1.173031847827320e-01	-1.712826596009778e+03	1.376723663953072e+01	8.605565163473429e+02	2.437899984464934e+03	
315	3.500000000000000e+01	8.000000000000000e+00	-1.235860680839829e-02	-1.110055803451203e-01	-1.604290921172071e+03	1.568982242039419e+01	8.624399684805486e+02	2.366336494782877e+03	
316	3.600000000000000e+01	8.000000000000000e+00	-1.253303724318486e-02	-1.046280308090120e-01	-1.496296208697688e+03	1.790335191561573e+01	8.647997914711782e+02	2.298763804020738e+03	
317	3.700000000000000e+01	8.000000000000000e+00	-1.269722668950954e-02	-9.817603619854322e-02	-1.388989552571921e+03	2.027434887075501e+01	8.676827691212789e+02	2.235512982567830e+03	
318	3.800000000000000e+01	8.000000000000000e+00	-1.285122267934183e-02	-9.165513408834002e-02	-1.282501396442119e+03	2.249493859488545e+01	8.710725960119460e+02	2.176714336919747e+03	
319	3.900000000000000e+01	8.000000000000000e+00	-1.299507017183491e-02	-8.507092702225176e-02	-1.176902649319051e+03	2.398470691548372e+01	8.748267341756102e+02	2.122125750674880e+03	
320	4.000000000000000e+01	8.000000000000000e+00	-1.312879320646307e-02	-7.842912391043946e-02	-1.072143203490497e+03	2.376748433082732e+01	8.785745102929839e+02	2.070891816640172e+03	
321	4.100000000000000e+01	8.000000000000000e+00	-1.325236559046874e-02	-7.173560109838049e-02	-9.679815792378697e+02	2.033834803530126e+01	8.815589380416443e+02	2.021227578381438e+03	
322	4.200000000000000e+01	8.000000000000000e+00	-1.336567074979288e-02	-6.499649023252464e-02	-8.639396240081078e+02	1.156290774306747e+01	8.824049302677095e+02	1.970040234854548e+03	
323	4.300000000000000e+01	8.000000000000000e+00	-1.346845773114962e-02	-5.821829960451148e-02	-7.593549305604718e+02	-5.299401902479213e+00	8.788126758822889e+02	1.912549768624399e+03	
324	4.400000000000000e+01	8.000000000000000e+00	-1.356031356876713e-02	-5.140806942220393e-02	-6.536568605570146e+02	-3.329226163745051e+01	8.672426140351286e+02	1.842088825759106e+03	
325	4.500000000000000e+01	8.000000000000000e+00	-1.364069349626991e-02	-4.457353673171212e-02	-5.469321423527149e+02	-7.493187249713318e+01	8.428050293430206e+02	1.750447235619315e+03	
326	4.600000000000000e+01	8.000000000000000e+00	-1.370905701721856e-02	-3.772323640728346e-02	-4.406333131518396e+02	-1.307832550806460e+02	7.998009442127629e+02	1.629335220248194e+03	
327	4.700000000000000e+01	8.000000000000000e+00	-1.376512505389998e-02	-3.086640548252440e-02	-3.378500665826278e+02	-1.979559512733471e+02	7.332711451806935e+02	1.473199461348187e+03	
328	4.800000000000000e+01	8.000000000000000e+00	-1.380915842522911e-02	-2.401258294340879e-02	-2.425830513346272e+02	-2.700123911864782e+02	6.411439056441280e+02	1.282581147398922e+03	
329	4.900000000000000e+01	8.000000000000000e+00	-1.384207093915482e-02	-1.717102642887391e-02	-1.584330070898213e+02	-3.393653868640860e+02	5.248191269282669e+02	1.065118298598692e+03	
330	5.000000000000000e+01	8.000000000000000e+00	-1.386529847907031e-02	-1.035050412717717e-02	-8.873546999746253e+01	-3.997269683499828e+02	3.852350977856655e+02	8.308670376848938e+02	
331	5.100000000000000e+01	8.000000000000000e+00	-1.388079502939414e-02	-3.560325696809512e-03	-3.998526181652834e+01	-4.415883158890343e+02	2.136912204274352e+02	5.864646313218138e+02	
332	1.000000000000000e+00	7.000000000000000e+00	-1.708822256374989e-04	-2.444738024631583e-01	-2.235157808035212e+03	-1.497795912058184e+03	4.201236252334361e+02	1.117907870781835e+03	
333	2.000000000000000e+00	7.000000000000000e+00	-3.571634336015762e-04	-2.439610676732480e-01	-2.328472867340880e+03	-1.172823389000997e+03	7.404747519437410e+02	1.878493319086289e+03	
334	3.000000000000000e+00	7.000000000000000e+00	-5.663783404263535e-04	-2.431365986580067e-01	-2.432637505911895e+03	-7.957651812402937e+02	9.212702808897396e+02	2.464610867678394e+03	
335	4.000000000000000e+00	7.000000000000000e+00	-7.964177785021888e-04	-2.420299154836310e-01	-2.504714315733995e+03	-4.780608786459849e+02	9.878750388293126e+02	2.830355547175780e+03	
336	5.000000000000000e+00	7.000000000000000e+00	-1.039545403125007e-03	-2.406642069723891e-01	-2.525450327623554e+03	-2.571786379236373e+02	9.915998805272178e+02	3.012994814223961e+03	
337	6.000000000000000e+00	7.000000000000000e+00	-1.287542697955275e-03	-2.390541629067341e-01	-2.500185463422443e+03	-1.207253541704225e+02	9.738265395899538e+02	3.074928117592444e+03	
338	7.000000000000000e+00	7.000000000000000e+00	-1.534469740001518e-03	-2.372084016578804e-01	-2.445365091027071e+03	-4.254540970473198e+01	9.554640862716387e+02	3.070047052012326e+03	
339	8.000000000000000e+00	7.000000000000000e+00	-1.776953990433731e-03	-2.351325779564442e-01	-2.376368851066518e+03	-8.709760570476419e-01	9.429300666272551e+02	3.033060928562634e+03	
340	9.000000000000000e+00	7.000000000000000e+00	-2.013428739956943e-03	-2.328313737516242e-01	-2.302969131342745e+03	1.892939694360778e+01	9.363146032821413e+02	2.982943667073836e+03	
341	1.000000000000000e+01	7.000000000000000e+00	-2.243346918333414e-03	-2.303093732864365e-01	-2.230082147595747e+03	2.622325192858384e+01	9.339053801195244e+02	2.929100730939007e+03	
342	1.100000000000000e+01	7.000000000000000e+00	-2.466680879570949e-03	-2.275713406660903e-01	-2.159766012611846e+03	2.680418887500672e+01	9.339741645805873e+02	2.875816441716383e+03	
343	1.200000000000000e+01	7.000000000000000e+00	-2.683636629317269e-03	-2.246222642617579e-01	-2.092580433087829e+03	2.416434855650328e+01	9.352501015676382e+02	2.824779545477421e+03	
344	1.300000000000000e+01	7.000000000000000e+00	-2.894501711121706e-03	-2.214673203207657e-01	-2.028379856129349e+03	2.033339814962152e+01	9.369352410005404e+02	2.776439551219024e+03	
345	1.400000000000000e+01	7.000000000000000e+00	-3.099568399585622e-03	-2.181118205601782e-01	-1.966732613080150e+03	1.642476797619311e+01	9.385897419225112e+02	2.730698813968123e+03	
346	1.500000000000000e+01	7.000000000000000e+00	-3.299098253471888e-03	-2.145611657500133e-01	-1.907132510044235e+03	1.298897076346262e+01	9.400096522001804e+02	2.687254935054946e+03	
347	1.600000000000000e+01	7.000000000000000e+00	-3.493308901097425e-03	-2.108208108854257e-01	-1.849099054952741e+03	1.024196088494139e+01	9.411312218838038e+02	2.645762823911908e+03	
348	1.700000000000000e+01	7.000000000000000e+00	-3.682372404685550e-03	-2.068962413365174e-01	-1.792219250023066e+03	8.211486290422144e+00	9.419654256054189e+02	2.605906039826901e+03	
349	1.800000000000000e+01	7.000000000000000e+00	-3.866419232875333e-03	-2.027929575950614e-01	-1.736159211642848e+03	6.829122388721728e+00	9.425569526928184e+02	2.567423371563100e+03	
350	1.900000000000000e+01	7.000000000000000e+00	-4.045544502734008e-03	-1.985164661285977e-01	-1.680660855590005e+03	5.986271452180389e+00	9.429605398038046e+02	2.530113999342320e+03	
351	2.000000000000000e+01	7.000000000000000e+00	-4.219814668308238e-03	-1.940722742950050e-01	-1.625531951231096e+03	5.566506650475333e+00	9.432286244852239e+02	2.493833019970822e+03	
352	2.100000000000000e+01	7.000000000000000e+00	-4.389273724049909e-03	-1.894658878067550e-01	-1.570634073947147e+03	5.462750234377189e+00	9.434059124754746e+02	2.458483284866874e+03	
353	2.200000000000000e+01	7.000000000000000e+00	-4.553948518589265e-03	-1.847028097018295e-01	-1.515870864080900e+03	5.585102956761091e+00	9.435278890214360e+02	2.424006553019090e+03	
354	2.300000000000000e+01	7.000000000000000e+00	-4.713853080072467e-03	-1.797885401364432e-01	-1.461177780646203e+03	5.863258639346853e+00	9.436213966204334e+02	2.390375445738099e+03	
355	2.400000000000000e+01	7.000000000000000e+00	-4.868992024036233e-03	-1.747285765695995e-01	-1.406513842479989e+03	6.246100644101581e+00	9.437061629710569e+02	2.357586890236329e+03	
356	2.500000000000000e+01	7.000000000000000e+00	-5.019363200280456e-03	-1.695284140818628e-01	-1.351855468580466e+03	6.700134236904759e+00	9.437966650952033e+02	2.325657306252531e+03	
357	2.600000000000000e+01	7.000000000000000e+00	-5.164959771845263e-03	-1.641935456831085e-01	-1.297192344536567e+03	7.207750198955239e+00	9.439040287593118e+02	2.294619547807060e+03	
358	2.700000000000000e+01	7.000000000000000e+00	-5.305771928069091e-03	-1.587294625354479e-01	-1.242525177359523e+03	7.765854673688587e+00	9.440378472717630e+02	2.264521471107901e+03	
359	2.800000000000000e+01	7.000000000000000e+00	-5.441788429209195e-03	-1.531416540634823e-01	-1.187865198200759e+03	8.385065667126966e+00	9.442079025390730e+02	2.235425898273733e+03	
360	2.900000000000000e+01	7.000000000000000e+00	-5.572998168516356e-03	-1.474356079559393e-01	-1.133235292518906e+03	9.089403755234841e+00	9.444258119047338e+02	2.207411644547856e+03	
361	3.000000000000000e+01	7.000000000000000e+00	-5.699391920491348e-03	-1.416168100899478e-01	-1.078672638155556e+03	9.916133823332764e+00	9.447066230860358e+02	2.180575137272044e+03	
362	3.100000000000000e+01	7.000000000000000e+00	-5.820964416417575e-03	-1.356907444389128e-01	-1.024232673007937e+03	1.091508793695800e+01	9.450703447132437e+02	2.155031951692333e+03	
363	3.200000000000000e+01	7.000000000000000e+00	-5.937716839806923e-03	-1.296628930639303e-01	-9.699940461240599e+02	1.214635734552565e+01	9.455433288261673e+02	2.130917295175502e+03	
364	3.300000000000000e+01	7.000000000000000e+00	-6.049659746470554e-03	-1.235387363436141e-01	-9.160638571531122e+02	1.367462664728372e+01	9.461593081306210e+02	2.108384071678669e+03	
365	3.400000000000000e+01	7.000000000000000e+00	-6.156816259133288e-03	-1.173237536764317e-01	-8.625818806946099e+02	1.555757624628379e+01	9.469597069475212e+02	2.087596621036973e+03	
366	3.500000000000000e+01	7.000000000000000e+00	-6.259225126252928e-03	-1.110234250067629e-01	-8.097214943371521e+02	1.782466893228022e+01	9.479925388013378e+02	2.068717493239224e+03	
367	3.600000000000000e+01	7.000000000000000e+00	-6.356942818035114e-03	-1.046432337059324e-01	-7.576835842511023e+02	2.044127235079186e+01	9.493086533338329e+02	2.051883517561292e+03	
368	3.700000000000000e+01	7.000000000000000e+00	-6.450043202651216e-03	-9.818867163480491e-02	-7.066777424927286e+02	2.325158295236766e+01	9.509530443232112e+02	2.037165577505929e+03	
369	3.800000000000000e+01	7.000000000000000e+00	-6.538612448891502e-03	-9.166524773141828e-02	-6.568827253843085e+02	2.589257974794017e+01	9.529468680541363e+02	2.024503161428795e+03	
370	3.900000000000000e+01	7.000000000000000e+00	-6.622735631760221e-03	-8.507850241434332e-02	-6.083760866971302e+02	2.767110479815990e+01	9.552518126053255e+02	2.013598801090248e+03	
371	4.000000000000000e+01	7.000000000000000e+00	-6.702470207405289e-03	-7.843403183773179e-02	-5.610230177478068e+02	2.739904264586975e+01	9.577009482751388e+02	2.003747725255438e+03	
372	4.100000000000000e+01	7.000000000000000e+00	-6.777800561908675e-03	-7.173752917473067e-02	-5.143217826912581e+02	2.319126616813066e+01	9.598674931307461e+02	1.993565322524077e+03	
373	4.200000000000000e+01	7.000000000000000e+00	-6.848568603470407e-03	-6.499485521048762e-02	-4.672276797014554e+02	1.225649260086135e+01	9.608239322928665e+02	1.980564461701599e+03	
374	4.300000000000000e+01	7.000000000000000e+00	-6.914380880419858e-03	-5.821215795220309e-02	-4.180454924349254e+02	-9.234748257669239e+00	9.587297808507808e+02	1.960555379303402e+03	
375	4.400000000000000e+01	7.000000000000000e+00	-6.974510373745239e-03	-5.139606571934267e-02	-3.645949996359642e+02	-4.599040526143818e+01	9.501999589707355e+02	1.926922088634750e+03	
376	4.500000000000000e+01	7.000000000000000e+00	-7.027847406165129e-03	-4.455397295563655e-02	-3.051045785918601e+02	-1.027725020470149e+02	9.296014618382944e+02	1.870180146565171e+03	
377	4.600000000000000e+01	7.000000000000000e+00	-7.073031211857542e-03	-3.769436275615360e-02	-2.399148947236916e+02	-1.820180522914241e+02	8.888784513564970e+02	1.778699426408893e+03	
378	4.700000000000000e+01	7.000000000000000e+00	-7.108885813213368e-03	-3.082695696492825e-02	-1.732526811802515e+02	-2.800152196476215e+02	8.193979277435546e+02	1.642269799875076e+03	
379	4.800000000000000e+01	7.000000000000000e+00	-7.135134004874111e-03	-2.396232704247609e-02	-1.127319519896327e+02	-3.842862585705773e+02	7.163283796730589e+02	1.458165673551115e+03	
380	4.900000000000000e+01	7.000000000000000e+00	-7.152883059693247e-03	-1.711085247955595e-02	-6.530746259047210e+01	-4.785047264176293e+02	5.827726856856341e+02	1.236619582393566e+03	
381	5.000000000000000e+01	7.000000000000000e+00	-7.164222964567286e-03	-1.028187447640779e-02	-3.274624118890522e+01	-5.566744752990838e+02	4.253662820120060e+02	9.991229603951057e+02	
382	5.100000000000000e+01	7.000000000000000e+00	-7.170955707335541e-03	-3.484965018564887e-03	-1.317200211393641e+01	-6.313952715168609e+02	2.369364293486661e+02	7.789451181188715e+02	
383	1.000000000000000e+00	6.000000000000000e+00	6.378943483726797e-05	-2.443738875419588e-01	2.484395795599382e+02	-1.127110025630202e+03	3.432063770586188e+02	1.537302567926549e+03	
384	2.000000000000000e+00	6.000000000000000e+00	1.172687159574428e-04	-2.438879573006156e-01	1.743822458058775e+02	-9.281663586901265e+02	6.279810105596018e+02	1.671243256910831e+03	
385	3.000000000000000e+00	6.000000000000000e+00	1.541432066433466e-04	-2.430963636112709e-01	8.098733993883438e+01	-6.774351134334097e+02	8.235115338445671e+02	1.813253871712204e+03	
386	4.000000000000000e+00	6.000000000000000e+00	1.736106229796527e-04	-2.420192126212100e-01	-3.825092947808578e+00	-4.419014197462416e+02	9.334158259936223e+02	1.917543033405674e+03	
387	5.000000000000000e+00	6.000000000000000e+00	1.789747971867030e-04	-2.406750689606231e-01	-6.276495146475914e+01	-2.578428954362840e+02	9.821165332069592e+02	1.973896386191023e+03	
388	6.000000000000000e+00	6.000000000000000e+00	1.750722751922447e-04	-2.390784099049022e-01	-9.246087194071561e+01	-1.313557955855551e+02	9.966261390775730e+02	1.993631726136002e+03	
389	7.000000000000000e+00	6.000000000000000e+00	1.662570992937401e-04	-2.372397316354583e-01	-9.898376670599175e+01	-5.249078504485138e+01	9.962972701254157e+02	1.993136874171256e+03	
390	8.000000000000000e+00	6.000000000000000e+00	1.555661698509116e-04	-2.351668220075352e-01	-9.130590722742483e+01	-7.507589193459324e+00	9.915538682806741e+02	1.984877440275544e+03	
391	9.000000000000000e+00	6.000000000000000e+00	1.447449197184782e-04	-2.328660135224269e-01	-7.706760458206769e+01	1.540444422700175e+01	9.867450712680496e+02	1.975655441239211e+03	
392	1.000000000000000e+01	6.000000000000000e+00	1.346022422807877e-04	-2.303429932061114e-01	-6.127508615848242e+01	2.486939101416978e+01	9.831538804934764e+02	1.968193862876539e+03	
393	1.100000000000000e+01	6.000000000000000e+00	1.253725384000149e-04	-2.276032152123455e-01	-4.664051870927891e+01	2.672633598734515e+01	9.808294284858783e+02	1.963030352924736e+03	
394	1.200000000000000e+01	6.000000000000000e+00	1.169790214997237e-04	-2.246520780985312e-01	-3.434613683520167e+01	2.471620188815913e+01	9.794602264998522e+02	1.959810628871076e+03	
395	1.300000000000000e+01	6.000000000000000e+00	1.092020068140939e-04	-2.214949890210303e-01	-2.467955773434222e+01	2.111391635434718e+01	9.787138021344041e+02	1.957963193786502e+03	
396	1.400000000000000e+01	6.000000000000000e+00	1.017773459582529e-04	-2.181373794162255e-01	-1.746532985029587e+01	1.721575313756242e+01	9.783370545123660e+02	1.956981437429834e+03	
397	1.500000000000000e+01	6.000000000000000e+00	9.444920292572752e-05	-2.145847032140767e-01	-1.232796588986738e+01	1.369078986111246e+01	9.781636791795283e+02	1.956500372786817e+03	
398	1.600000000000000e+01	6.000000000000000e+00	8.699479343648360e-05	-2.108424306255766e-01	-8.840546573784422e+00	1.082399385323885e+01	9.780941280788323e+02	1.956287092345950e+03	
399	1.700000000000000e+01	6.000000000000000e+00	7.923284150789180e-05	-2.069160422702618e-01	-6.601348035123706e+00	8.678820965319105e+00	9.780730522584229e+02	1.956205783086512e+03	
400	1.800000000000000e+01	6.000000000000000e+00	7.102322284430367e-05	-2.028110248828161e-01	-5.267529734815341e+00	7.202213103394897e+00	9.780717712897365e+02	1.956183287338337e+03	
401	1.900000000000000e+01	6.000000000000000e+00	6.226237250801370e-05	-1.985328685476121e-01	-4.564527522015787e+00	6.289594504033644e+00	9.780765769092141e+02	1.956183266761767e+03	
402	2.000000000000000e+01	6.000000000000000e+00	5.287714211290571e-05	-1.940870650617889e-01	-4.282739739907136e+00	5.822923375372824e+00	9.780816231531014e+02	1.956189349379610e+03	
403	2.100000000000000e+01	6.000000000000000e+00	4.281858226825721e-05	-1.894791070305320e-01	-4.268489226194767e+00	5.691229523997549e+00	9.780848995962606e+02	1.956195153677284e+03	
404	2.200000000000000e+01	6.000000000000000e+00	3.205637239075418e-05	-1.847144873986556e-01	-4.413298389037507e+00	5.800272419795036e+00	9.780860897499815e+02	1.956198842878275e+03	
405	2.300000000000000e+01	6.000000000000000e+00	2.057416714814650e-05	-1.797986992251804e-01	-4.643670986948656e+00	6.075854817316547e+00	9.780855034367842e+02	1.956200377355607e+03	
406	2.400000000000000e+01	6.000000000000000e+00	8.365870381992107e-06	-1.747372355852243e-01	-4.912453469966067e+00	6.463792771082701e+00	9.780835833012247e+02	1.956200246056623e+03	
407	2.500000000000000e+01	6.000000000000000e+00	-4.567289230943076e-06	-1.695355895344648e-01	-5.192203109137338e+00	6.928450498612094e+00	9.780806976107448e+02	1.956198945505994e+03	
408	2.600000000000000e+01	6.000000000000000e+00	-1.821907009944754e-05	-1.641992541021649e-01	-5.470649326602754e+00	7.450986369473526e+00	9.780770650406907e+02	1.956196807405510e+03	
409	2.700000000000000e+01	6.000000000000000e+00	-3.258012912852848e-05	-1.587337222956840e-01	-5.748182622213967e+00	8.027929549726409e+00	9.780727338796805e+02	1.956193976143998e+03	
410	2.800000000000000e+01	6.000000000000000e+00	-4.763974606598817e-05	-1.531444871077403e-01	-6.037260416953188e+00	8.670330120185511e+00	9.780675850012208e+02	1.956190460190390e+03	
411	2.900000000000000e+01	6.000000000000000e+00	-6.338756504515854e-05	-1.474370415202383e-01	-6.363617345951496e+00	9.403427786108693e+00	9.780613588439464e+02	1.956186260652820e+03	
412	3.000000000000000e+01	6.000000000000000e+00	-7.981554119522769e-05	-1.416168784967337e-01	-6.769166385355877e+00	1.026649841780635e+01	9.780537353056588e+02	1.956181650679888e+03	
413	3.100000000000000e+01	6.000000000000000e+00	-9.692025311780262e-05	-1.356894909490698e-01	-7.316420582086039e+00	1.131220220473234e+01	9.780445350889545e+02	1.956177772099563e+03	
414	3.200000000000000e+01	6.000000000000000e+00	-1.147056945814286e-04	-1.296603716513909e-01	-8.094106782534535e+00	1.260431079351805e+01	9.780341685319961e+02	1.956177845635321e+03	
415	3.300000000000000e+01	6.000000000000000e+00	-1.331865728591724e-04	-1.235350130546800e-01	-9.223310065598977e+00	1.421206720668029e+01	9.780245461080482e+02	1.956189476525040e+03	
416	3.400000000000000e+01	6.000000000000000e+00	-1.523919896004870e-04	-1.173189069263907e-01	-1.086288602085239e+01	1.619856645895889e+01	9.780207823834133e+02	1.956228750761468e+03	
417	3.500000000000000e+01	6.000000000000000e+00	-1.723691218720258e-04	-1.110175437072508e-01	-1.321188273215487e+01	1.859936315876607e+01	9.780341458474541e+02	1.956326945359433e+03	
418	3.600000000000000e+01	6.000000000000000e+00	-1.931860984660169e-04	-1.046364114593375e-01	-1.650513141889772e+01	2.138595807099117e+01	9.780867377029587e+02	1.956540416281860e+03	
419	3.700000000000000e+01	6.000000000000000e+00	-2.149325985058928e-04	-9.818099432939262e-02	-2.099575871034669e+01	2.440683994731966e+01	9.782180652263778e+02	1.956962883783395e+03	
420	3.800000000000000e+01	6.000000000000000e+00	-2.377156760009129e-04	-9.165677069658316e-02	-2.691483823466914e+01	2.729638967975279e+01	9.784924110693773e+02	1.957735541719934e+03	
421	3.900000000000000e+01	6.000000000000000e+00	-2.616467965467092e-04	-8.506921189279876e-02	-3.439348408789509e+01	2.933940737733967e+01	9.790023899198316e+02	1.959041755381821e+03	
422	4.000000000000000e+01	6.000000000000000e+00	-2.868139158767418e-04	-7.842378415017204e-02	-4.332678054134171e+01	2.927701649708033e+01	9.798557701284319e+02	1.961055999292301e+03	
423	4.100000000000000e+01	6.000000000000000e+00	-3.132296176256356e-04	-7.172596030271500e-02	-5.315432929483765e+01	2.504071011957229e+01	9.811143973188484e+02	1.963786217156626e+03	
424	4.200000000000000e+01	6.000000000000000e+00	-3.407433321055516e-04	-6.498125579733671e-02	-6.253995682652398e+01	1.341099004257290e+01	9.826190174974988e+02	1.966705133089684e+03	
425	4.300000000000000e+01	6.000000000000000e+00	-3.689050306059432e-04	-5.819531801801629e-02	-6.897578103566374e+01	-1.036153264194574e+01	9.835666219370285e+02	1.968006308239186e+03	
426	4.400000000000000e+01	6.000000000000000e+00	-3.967759225667604e-04	-5.137412456627834e-02	-6.852874575179069e+01	-5.284120718674731e+01	9.816368434979970e+02	1.963336361634724e+03	
427	4.500000000000000e+01	6.000000000000000e+00	-4.227254450401026e-04	-4.452436755955374e-02	-5.625751639116348e+01	-1.220712504204827e+02	9.713730146007757e+02	1.943860484079369e+03	
428	4.600000000000000e+01	6.000000000000000e+00	-4.443479679993342e-04	-3.765413170488045e-02	-2.925888512541189e+01	-2.258294590539846e+02	9.422092392907900e+02	1.894643236325595e+03	
429	4.700000000000000e+01	6.000000000000000e+00	-4.589780161631029e-04	-3.077366490897456e-02	8.346450541055837e+00	-3.641558969703842e+02	8.780720407731003e+02	1.795215873941427e+03	
430	4.800000000000000e+01	6.000000000000000e+00	-4.650576950683209e-04	-2.389546335159199e-02	4.234247510446604e+01	-5.182110265140786e+02	7.648285980418577e+02	1.629132089705284e+03	
431	4.900000000000000e+01	6.000000000000000e+00	-4.639257381305719e-04	-1.703245878858539e-02	5.599572122935355e+01	-6.497357499049025e+02	6.043342511597410e+02	1.399620111976297e+03	
432	5.000000000000000e+01	6.000000000000000e+00	-4.596752433056801e-04	-1.019471859280772e-02	4.627701374842790e+01	-7.354769893587393e+02	4.200182502822331e+02	1.147519343477344e+03	
433	5.100000000000000e+01	6.000000000000000e+00	-4.556048479510737e-04	-3.388953112841311e-03	2.818845908360033e+01	-8.204552302992180e+02	2.257440370832276e+02	9.612687411144793e+02	
434	1.000000000000000e+00	5.000000000000000e+00	3.007534861927333e-04	-2.442333459435212e-01	2.724483955088236e+03	-8.185478389422284e+02	2.861466305073938e+02	3.588954425750440e+03	
435	2.000000000000000e+00	5.000000000000000e+00	5.939720379468244e-04	-2.437645464182655e-01	2.660378025352932e+03	-6.947260528136713e+02	5.356214137700798e+02	3.521971687973430e+03	
436	3.000000000000000e+00	5.000000000000000e+00	8.743057355029528e-04	-2.429953682598839e-01	2.571650448243982e+03	-5.303407905333072e+02	7.255391444518007e+02	3.424613532353463e+03	
437	4.000000000000000e+00	5.000000000000000e+00	1.139626850094933e-03	-2.419402924836745e-01	2.476693575236362e+03	-3.648302181114005e+02	8.520124229653043e+02	3.313300189193591e+03	
438	5.000000000000000e+00	5.000000000000000e+00	1.390626665384440e-03	-2.406142384379960e-01	2.389381631165983e+03	-2.250685350902835e+02	9.255800998487576e+02	3.203458093495460e+03	
439	6.000000000000000e+00	5.000000000000000e+00	1.629566682390952e-03	-2.390304868040896e-01	2.315980637561143e+03	-1.214635929681363e+02	9.624126817176204e+02	3.105815039029865e+03	
440	7.000000000000000e+00	5.000000000000000e+00	1.859022945514174e-03	-2.372000161288031e-01	2.256204588157901e+03	-5.240109819171100e+01	9.773094900550474e+02	3.024929019407296e+03	
441	8.000000000000000e+00	5.000000000000000e+00	2.081112698365502e-03	-2.351317718743141e-01	2.206284277758093e+03	-1.072807300750472e+01	9.807595528946500e+02	2.960185968114783e+03	
442	9.000000000000000e+00	5.000000000000000e+00	2.297239226923598e-03	-2.328332614374620e-01	2.161780766557787e+03	1.163249615869466e+01	9.790371727157559e+02	2.908125294229471e+03	
443	1.000000000000000e+01	5.000000000000000e+00	2.508156967816405e-03	-2.303111001157811e-01	2.119126335107274e+03	2.153740603632416e+01	9.754562323271759e+02	2.864600977466971e+03	
444	1.100000000000000e+01	5.000000000000000e+00	2.714152966835155e-03	-2.275713890886790e-01	2.076035829608643e+03	2.407232147286469e+01	9.715956174012529e+02	2.826047843497024e+03	
445	1.200000000000000e+01	5.000000000000000e+00	2.915227449806006e-03	-2.246199426673417e-01	2.031329035693454e+03	2.270140481434437e+01	9.681219249914103e+02	2.789914910194811e+03	
446	1.300000000000000e+01	5.000000000000000e+00	3.111230969457527e-03	-2.214624162051703e-01	1.984585867545839e+03	1.962188850282209e+01	9.652564140507659e+02	2.754625785547130e+03	
447	1.400000000000000e+01	5.000000000000000e+00	3.301954890369342e-03	-2.181043769104918e-01	1.935835349419543e+03	1.612624455445994e+01	9.630163416631257e+02	2.719353773333441e+03	
448	1.500000000000000e+01	5.000000000000000e+00	3.487184702099897e-03	-2.145513434358550e-01	1.885330531017474e+03	1.290169248159931e+01	9.613336348051179e+02	2.683773311032674e+03	
449	1.600000000000000e+01	5.000000000000000e+00	3.666727579311230e-03	-2.108088085575732e-01	1.833405518680690e+03	1.025431341968905e+01	9.601114896740645e+02	2.647855095669181e+03	
450	1.700000000000000e+01	5.000000000000000e+00	3.840423692534291e-03	-2.068822524370167e-01	1.780394304291445e+03	8.265993014934622e+00	9.592507486718446e+02	2.611721031606881e+03	
451	1.800000000000000e+01	5.000000000000000e+00	4.008148140459423e-03	-2.027771503902762e-01	1.726590920954342e+03	6.898515745523042e+00	9.586616294025719e+02	2.575552454773163e+03	
452	1.900000000000000e+01	5.000000000000000e+00	4.169808059346324e-03	-1.984989773094654e-01	1.672234872514735e+03	6.059002892346129e+00	9.582682275966712e+02	2.539538149466746e+03	
453	2.000000000000000e+01	5.000000000000000e+00	4.325337721632667e-03	-1.940532099928744e-01	1.617510636529877e+03	5.638585433840689e+00	9.580093610226172e+02	2.503848887679206e+03	
454	2.100000000000000e+01	5.000000000000000e+00	4.474693228122008e-03	-1.894453281775511e-01	1.562554006265590e+03	5.533442897612133e+00	9.578375531081750e+02	2.468627988848817e+03	
455	2.200000000000000e+01	5.000000000000000e+00	4.617847612486655e-03	-1.846808148003829e-01	1.507460906688514e+03	5.654823483149087e+00	9.577171251513855e+02	2.433990525615410e+03	
456	2.300000000000000e+01	5.000000000000000e+00	4.754786693678808e-03	-1.797651558416969e-01	1.452296243778421e+03	5.932621790935670e+00	9.576219441412013e+02	2.400026432898574e+03	
457	2.400000000000000e+01	5.000000000000000e+00	4.885505733014948e-03	-1.747038399862207e-01	1.397101558655730e+03	6.315549714743796e+00	9.575331318703082e+02	2.366804706177390e+03	
458	2.500000000000000e+01	5.000000000000000e+00	5.010006804215236e-03	-1.695023582512936e-01	1.341900967650346e+03	6.769825407475722e+00	9.574368881432869e+02	2.334377164490938e+03	
459	2.600000000000000e+01	5.000000000000000e+00	5.128296714193138e-03	-1.641662036716861e-01	1.286705249707585e+03	7.277533252020760e+00	9.573224814349620e+02	2.302781061125411e+03	
460	2.700000000000000e+01	5.000000000000000e+00	5.240385285904676e-03	-1.587008710872791e-01	1.231514112674787e+03	7.835277812831841e+00	9.571804010521345e+02	2.272040310276737e+03	
461	2.800000000000000e+01	5.000000000000000e+00	5.346283810065963e-03	-1.531118570476994e-01	1.176316723276924e+03	8.453384148477738e+00	9.570006385609918e+02	2.242165397044747e+03	
462	2.900000000000000e+01	5.000000000000000e+00	5.446003478596665e-03	-1.474046598202621e-01	1.121090580019418e+03	9.155611764556355e+00	9.567710760715929e+02	2.213152263550051e+03	
463	3.000000000000000e+01	5.000000000000000e+00	5.539553624233198e-03	-1.415847794574030e-01	1.065798794218279e+03	9.979084764996578e+00	9.564760044618594e+02	2.184980697240895e+03	
464	3.100000000000000e+01	5.000000000000000e+00	5.626939609714093e-03	-1.356577178390242e-01	1.010385858119419e+03	1.097383934582726e+01	9.560948949196761e+02	2.157613073661488e+03	
465	3.200000000000000e+01	5.000000000000000e+00	5.708160242672924e-03	-1.296289785451946e-01	9.547720681130354e+02	1.220099217903341e+01	9.556017107630823e+02	2.130994779824836e+03	
466	3.300000000000000e+01	5.000000000000000e+00	5.783204652804459e-03	-1.235040663248395e-01	8.988469804479978e+02	1.372797759856542e+01	9.549653093392556e+02	2.105058340609793e+03	
467	3.400000000000000e+01	5.000000000000000e+00	5.852048676782190e-03	-1.172884857958562e-01	8.424626926852707e+02	1.561851823845807e+01	9.541518670235535e+02	2.079734221047190e+03	
468	3.500000000000000e+01	5.000000000000000e+00	5.914650987081382e-03	-1.109877388332868e-01	7.854284823899379e+02	1.791389057026851e+01	9.531307895220880e+02	2.054972470958214e+03	
469	3.600000000000000e+01	5.000000000000000e+00	5.970949525452182e-03	-1.046073198767822e-01	7.275096086440906e+02	2.060049816636549e+01	9.518862260522044e+02	2.030780647895789e+03	
470	3.700000000000000e+01	5.000000000000000e+00	6.020859341602669e-03	-9.815270814630452e-02	6.684352636513469e+02	2.355657206110232e+01	9.504369617880130e+02	2.007284284848178e+03	
471	3.800000000000000e+01	5.000000000000000e+00	6.064273833232848e-03	-9.162935559037005e-02	6.079244370631618e+02	2.646765886667350e+01	9.488677166204473e+02	1.984815296063753e+03	
472	3.900000000000000e+01	5.000000000000000e+00	6.101072871650685e-03	-8.504266954460241e-02	5.457450253889278e+02	2.869589395580240e+01	9.473737080914631e+02	1.964028404949283e+03	
473	4.000000000000000e+01	5.000000000000000e+00	6.131143790384862e-03	-7.839799008957402e-02	4.818329591887514e+02	2.908115159942373e+01	9.463151778213623e+02	1.946030283005819e+03	
474	4.100000000000000e+01	5.000000000000000e+00	6.154425406399047e-03	-7.170056520628523e-02	4.165168858532444e+02	2.564204712113192e+01	9.462640027617351e+02	1.932471317056090e+03	
475	4.200000000000000e+01	5.000000000000000e+00	6.170992090155481e-03	-6.495553440831839e-02	3.509229375943245e+02	1.513310823417876e+01	9.479855774144884e+02	1.925476935578622e+03	
476	4.300000000000000e+01	5.000000000000000e+00	6.181205555680470e-03	-5.816794992717508e-02	2.876533083008172e+02	-7.597534334401381e+00	9.522162718525210e+02	1.927183533968590e+03	
477	4.400000000000000e+01	5.000000000000000e+00	6.185973337705257e-03	-5.134289960628105e-02	2.318245941284092e+02	-5.045313823179963e+01	9.588722114584818e+02	1.938407694427449e+03	
478	4.500000000000000e+01	5.000000000000000e+00	6.187158582751368e-03	-4.448588823829963e-02	1.919806709753679e+02	-1.250950858265416e+02	9.650838294012709e+02	1.956037889878105e+03	
479	4.600000000000000e+01	5.000000000000000e+00	6.188079512427807e-03	-3.760369437553756e-02	1.798736467946127e+02	-2.466484874931945e+02	9.604445791948217e+02	1.967672810671606e+03	
480	4.700000000000000e+01	5.000000000000000e+00	6.193851491256648e-03	-3.070630992043222e-02	1.984019996698966e+02	-4.319972640219476e+02	9.208804937223240e+02	1.946660413769259e+03	
481	4.800000000000000e+01	5.000000000000000e+00	6.209358123962568e-03	-2.380894591766857e-02	2.269662704631720e+02	-6.700993035588659e+02	8.078267285598121e+02	1.847988835896495e+03	
482	4.900000000000000e+01	5.000000000000000e+00	6.234858638713547e-03	-1.693062113902688e-02	2.241231934650952e+02	-8.838392862132910e+02	6.038853228953723e+02	1.638990783747386e+03	
483	5.000000000000000e+01	5.000000000000000e+00	6.262254587398074e-03	-1.008546637209834e-02	1.702774577072220e+02	-9.688253282732063e+02	3.576935478030296e+02	1.345114810560068e+03	
484	5.100000000000000e+01	5.000000000000000e+00	6.281664581987067e-03	-3.273154862570646e-03	1.035886306583810e+02	-9.764580063361173e+02	1.560155047626577e+02	1.124217100469706e+03	
485	1.000000000000000e+00	4.000000000000000e+00	5.416573453689858e-04	-2.440465891795970e-01	5.217723718802551e+03	-5.605727757028473e+02	2.381417111256847e+02	5.797892399546998e+03	
486	2.000000000000000e+00	4.000000000000000e+00	1.077200265411805e-03	-2.435889902291353e-01	5.155990801290342e+03	-4.845525545299019e+02	4.518974827404978e+02	5.712492861134856e+03	
487	3.000000000000000e+00	4.000000000000000e+00	1.601773247333202e-03	-2.428351553686707e-01	5.064629647927925e+03	-3.802469323014751e+02	6.243176300638598e+02	5.586212579804391e+03	
488	4.000000000000000e+00	4.000000000000000e+00	2.112487939895363e-03	-2.417962247913985e-01	4.956271510047446e+03	-2.704594741734838e+02	7.494702835109113e+02	5.437420307910618e+03	
489	5.000000000000000e+00	4.000000000000000e+00	2.608381765778153e-03	-2.404845777121729e-01	4.841940550690706e+03	-1.729367186668393e+02	8.311440714940618e+02	5.283199399704491e+03	
490	6.000000000000000e+00	4.000000000000000e+00	3.089838097745747e-03	-2.389122494613029e-01	4.728690571115758e+03	-9.683289516627117e+01	8.786296525277951e+02	5.135526943639084e+03	
491	7.000000000000000e+00	4.000000000000000e+00	3.557860441450372e-03	-2.370900865059965e-01	4.619403650316211e+03	-4.363469194978538e+01	9.024072728432582e+02	5.000128210932641e+03	
492	8.000000000000000e+00	4.000000000000000e+00	4.013506625947075e-03	-2.350275407607949e-01	4.514026833212118e+03	-1.017605922322423e+01	9.114397957901680e+02	4.877632808783416e+03	
493	9.000000000000000e+00	4.000000000000000e+00	4.457589600569434e-03	-2.327328327157978e-01	4.411143682187646e+03	8.452427826951933e+00	9.122339192214367e+02	4.765750011775330e+03	
494	1.000000000000000e+01	4.000000000000000e+00	4.890599299573280e-03	-2.302132409432626e-01	4.309143959614916e+03	1.705543604882598e+01	9.090085508204081e+02	4.661245549848903e+03	
495	1.100000000000000e+01	4.000000000000000e+00	5.312747675614036e-03	-2.274753801040466e-01	4.206801721037981e+03	1.951623228374038e+01	9.042692068818330e+02	4.561158949038132e+03	
496	1.200000000000000e+01	4.000000000000000e+00	5.724055030174176e-03	-2.245254187892990e-01	4.103410214427519e+03	1.862812238720535e+01	8.993830124281286e+02	4.463295189837932e+03	
497	1.300000000000000e+01	4.000000000000000e+00	6.124432201948619e-03	-2.213692352362698e-01	3.998695972123782e+03	1.622781359772263e+01	8.950145620007465e+02	4.366263493932483e+03	
498	1.400000000000000e+01	4.000000000000000e+00	6.513741843093135e-03	-2.180125240329298e-01	3.892670787055149e+03	1.342230813322230e+01	8.914187971645266e+02	4.269318288552762e+03	
499	1.500000000000000e+01	4.000000000000000e+00	6.891837520174222e-03	-2.144608676899480e-01	3.785498974740542e+03	1.081111564667383e+01	8.886261158521436e+02	4.172156987541159e+03	
500	1.600000000000000e+01	4.000000000000000e+00	7.258585218535819e-03	-2.107197837984749e-01	3.677403223454250e+03	8.666669466052383e+00	8.865551606841495e+02	4.074745159431689e+03	
501	1.700000000000000e+01	4.000000000000000e+00	7.613872869044477e-03	-2.067947553962970e-01	3.568607823436314e+03	7.066345759927557e+00	8.850792227121383e+02	3.977189789174788e+03	
502	1.800000000000000e+01	4.000000000000000e+00	7.957612632419613e-03	-2.026912498694078e-01	3.459309915976087e+03	5.982103521711366e+00	8.840634932458796e+02	3.879657977274718e+03	
503	1.900000000000000e+01	4.000000000000000e+00	8.289739332012944e-03	-1.984147301371992e-01	3.349668869668321e+03	5.337490536816418e+00	8.833842649876916e+02	3.782330420779630e+03	
504	2.000000000000000e+01	4.000000000000000e+00	8.610207212131042e-03	-1.939706607712013e-01	3.239805978392817e+03	5.041482904932423e+00	8.829372139890827e+02	3.685378384461520e+03	
505	2.100000000000000e+01	4.000000000000000e+00	8.918986288412704e-03	-1.893645109109389e-01	3.129809160967610e+03	5.006898553259447e+00	8.826393401888738e+02	3.588955000914061e+03	
506	2.200000000000000e+01	4.000000000000000e+00	9.216058942728684e-03	-1.846017552657662e-01	3.019739400724102e+03	5.159147343411547e+00	8.824274743015470e+02	3.493194396778058e+03	
507	2.300000000000000e+01	4.000000000000000e+00	9.501417033807531e-03	-1.796878740708848e-01	2.909637121128512e+03	5.439342996822432e+00	8.822551441396926e+02	3.398214427011463e+03	
508	2.400000000000000e+01	4.000000000000000e+00	9.775059575906672e-03	-1.746283525623641e-01	2.799527623575663e+03	5.804447145924946e+00	8.820888479849330e+02	3.304120477446034e+03	
509	2.500000000000000e+01	4.000000000000000e+00	1.003699092293624e-02	-1.694286803222933e-01	2.689425251309649e+03	6.226131905204717e+00	8.819042892627542e+02	3.211008909369913e+03	
510	2.600000000000000e+01	4.000000000000000e+00	1.028721934252216e-02	-1.640943506986395e-01	2.579336217628758e+03	6.689363720879108e+00	8.816828116904575e+02	3.118969406173082e+03	
511	2.700000000000000e+01	4.000000000000000e+00	1.052575584519375e-02	-1.586308604051529e-01	2.469260149898133e+03	7.191249238231705e+00	8.814080866856457e+02	3.028085885951067e+03	
512	2.800000000000000e+01	4.000000000000000e+00	1.075261313087127e-02	-1.530437093376880e-01	2.359190417701528e+03	7.740365752939574e+00	8.810630112567894e+02	2.938435887683879e+03	
513	2.900000000000000e+01	4.000000000000000e+00	1.096780451784769e-02	-1.473384005890809e-01	2.249113286594473e+03	8.356562376611585e+00	8.806267571460555e+02	2.850088531736141e+03	
514	3.000000000000000e+01	4.000000000000000e+00	1.117134272492334e-02	-1.415204405907820e-01	2.139005890864519e+03	9.071004507968368e+00	8.800719624434438e+02	2.763101383669247e+03	
515	3.100000000000000e+01	4.000000000000000e+00	1.136323838376458e-02	-1.355953392415399e-01	2.028832978140820e+03	9.925998639980655e+00	8.793621866736090e+02	2.677516911857471e+03	
516	3.200000000000000e+01	4.000000000000000e+00	1.154349816989513e-02	-1.295686097859274e-01	1.918542361787824e+03	1.097382574305149e+01	8.784499755209193e+02	2.593359820325520e+03	
517	3.300000000000000e+01	4.000000000000000e+00	1.171212246246098e-02	-1.234457680611862e-01	1.808059043570531e+03	1.227338040063369e+01	8.772762441741156e+02	2.510637485264553e+03	
518	3.400000000000000e+01	4.000000000000000e+00	1.186910248602769e-02	-1.172323305200959e-01	1.697278081456173e+03	1.388279663438315e+01	8.757722336290618e+02	2.429347176865172e+03	
519	3.500000000000000e+01	4.000000000000000e+00	1.201441696945122e-02	-1.109338101394174e-01	1.586056535882449e+03	1.584535017368148e+01	8.738660954733397e+02	2.349495898910277e+03	
520	3.600000000000000e+01	4.000000000000000e+00	1.214802850681478e-02	-1.045557089188053e-01	1.474205383219004e+03	1.816461111076690e+01	8.714972887349919e+02	2.271141745275120e+03	
521	3.700000000000000e+01	4.000000000000000e+00	1.226988007985118e-02	-9.810350515571103e-02	1.361483453231625e+03	2.076281252732391e+01	8.686434965290036e+02	2.194469852301253e+03	
522	3.800000000000000e+01	4.000000000000000e+00	1.237989270913977e-02	-9.158263307142853e-02	1.247597928289626e+03	2.341317359214462e+01	8.653666893135877e+02	2.119921305503573e+03	
523	3.900000000000000e+01	4.000000000000000e+00	1.247796617213373e-02	-8.499845176349320e-02	1.132221294984917e+03	2.563146058690039e+01	8.618870091759018e+02	2.048398869345947e+03	
524	4.000000000000000e+01	4.000000000000000e+00	1.256398664158530e-02	-7.835620017917566e-02	1.015046190855929e+03	2.650239815688898e+01	8.586944144313632e+02	1.981575943431463e+03	
525	4.100000000000000e+01	4.000000000000000e+00	1.263784897318021e-02	-7.166093557319414e-02	8.959248459070837e+02	2.439919787495421e+01	8.567047870327024e+02	1.922323938278045e+03	
526	4.200000000000000e+01	4.000000000000000e+00	1.269950939692351e-02	-6.491745697581208e-02	7.751920358445968e+02	1.652202911269585e+01	8.574521647309139e+02	1.875227196454206e+03	
527	4.300000000000000e+01	4.000000000000000e+00	1.274910064891645e-02	-5.813022629185912e-02	6.543867241599010e+02	-1.870014700586239e+00	8.632407098473739e+02	1.847000541378100e+03	
528	4.400000000000000e+01	4.000000000000000e+00	1.278717592259289e-02	-5.130333775666892e-02	5.377490683863804e+02	-3.877457241852571e+01	8.770399816511600e+02	1.846395414331831e+03	
529	4.500000000000000e+01	4.000000000000000e+00	1.281520340397551e-02	-4.444065117037140e-02	4.353528587785807e+02	-1.075065476543723e+02	9.011487611189879e+02	1.882278590915246e+03	
530	4.600000000000000e+01	4.000000000000000e+00	1.283656094758266e-02	-3.754655270189000e-02	3.669752553715391e+02	-2.305806523104692e+02	9.332353386450990e+02	1.959792298175957e+03	
531	4.700000000000000e+01	4.000000000000000e+00	1.285803499541220e-02	-3.062779802904866e-02	3.687176995606162e+02	-4.402020462987171e+02	9.504172041016877e+02	2.065798296700577e+03	
532	4.800000000000000e+01	4.000000000000000e+00	1.289215375259974e-02	-2.370038980529859e-02	4.323559191931297e+02	-7.947078597005532e+02	8.887396148459529e+02	2.159888406714332e+03	
533	4.900000000000000e+01	4.000000000000000e+00	1.294749590733532e-02	-1.679516204229544e-02	4.664909462014671e+02	-1.223451385450001e+03	6.408666116090162e+02	2.121024549553467e+03	
534	5.000000000000000e+01	4.000000000000000e+00	1.301380452511403e-02	-9.944104068736612e-03	3.847007117540734e+02	-1.380237553149772e+03	2.448780991417121e+02	1.831629933332285e+03	
535	5.100000000000000e+01	4.000000000000000e+00	1.306149249378079e-02	-3.141228981687979e-03	2.576863975838979e+02	-1.088276390358466e+03	-2.359577611918775e+01	1.346789838515366e+03	
536	1.000000000000000e+00	3.000000000000000e+00	7.884146120610374e-04	-2.438080887742190e-01	7.750728194395147e+03	-3.490151477213166e+02	1.918789777797419e+02	8.108829285206045e+03	
537	2.000000000000000e+00	3.000000000000000e+00	1.571216274467159e-03	-2.433579281879293e-01	7.684603512702688e+03	-3.049439313759641e+02	3.669633670705820e+02	8.023186200772786e+03	
538	3.000000000000000e+00	3.000000000000000e+00	2.343573152727752e-03	-2.426146619540731e-01	7.582498788173472e+03	-2.432327699279394e+02	5.127548254112335e+02	7.892638624908299e+03	
539	4.000000000000000e+00	3.000000000000000e+00	3.101936441394999e-03	-2.415874728442949e-01	7.453949417620396e+03	-1.764629227766506e+02	6.234682986217924e+02	7.731626178368232e+03	
540	5.000000000000000e+00	3.000000000000000e+00	3.844137289523962e-03	-2.402870894360586e-01	7.308357370657946e+03	-1.152367566805812e+02	6.998714181275069e+02	7.554404660534298e+03	
541	6.000000000000000e+00	3.000000000000000e+00	4.569147177923095e-03	-2.387245549565745e-01	7.153224606767098e+03	-6.586669037763815e+01	7.472408611667049e+02	7.372160794156589e+03	
542	7.000000000000000e+00	3.000000000000000e+00	5.276683121162601e-03	-2.369103903400872e-01	6.993506455439431e+03	-3.027461095628013e+01	7.727734661173528e+02	7.191815889495432e+03	
543	8.000000000000000e+00	3.000000000000000e+00	5.966831962563661e-03	-2.348541869734442e-01	6.831896177772337e+03	-7.275570982370652e+00	7.835260280363107e+02	7.016403805041865e+03	
544	9.000000000000000e+00	3.000000000000000e+00	6.639788359233251e-03	-2.325645267610157e-01	6.669548641296295e+03	5.827015441240448e+00	7.852879902474153e+02	6.846305194584567e+03	
545	1.000000000000000e+01	3.000000000000000e+00	7.295718499321638e-03	-2.300490892284904e-01	6.506801925872363e+03	1.201140939390869e+01	7.822573649012177e+02	6.680569600917819e+03	
546	1.100000000000000e+01	3.000000000000000e+00	7.934715571531952e-03	-2.273148320424920e-01	6.343678217369597e+03	1.385587968174373e+01	7.771889058299123e+02	6.517878581875587e+03	
547	1.200000000000000e+01	3.000000000000000e+00	8.556804308287227e-03	-2.243681767174918e-01	6.180143662262347e+03	1.329660087701451e+01	7.717234823489621e+02	6.357061523326021e+03	
548	1.300000000000000e+01	3.000000000000000e+00	9.161962951592467e-03	-2.212151684563579e-01	6.016201189162642e+03	1.164103503993620e+01	7.667275781957981e+02	6.197275801603641e+03	
549	1.400000000000000e+01	3.000000000000000e+00	9.750145677921464e-03	-2.178616012501431e-01	5.851899272883231e+03	9.689617622124530e+00	7.625720147130082e+02	6.038002812728718e+03	
550	1.500000000000000e+01	3.000000000000000e+00	1.032129916872482e-02	-2.143131098667555e-01	5.687312304703360e+03	7.879152321615877e+00	7.593355398085540e+02	5.878972935848425e+03	
551	1.600000000000000e+01	3.000000000000000e+00	1.087537264527232e-02	-2.105752342403549e-01	5.522519587012687e+03	6.408273721976897e+00	7.569423338362224e+02	5.720081363724425e+03	
552	1.700000000000000e+01	3.000000000000000e+00	1.141232281857102e-02	-2.066534625150034e-01	5.357591680234817e+03	5.332615848646114e+00	7.552488896444457e+02	5.561320044156836e+03	
553	1.800000000000000e+01	3.000000000000000e+00	1.193211555791025e-02	-2.025532584395200e-01	5.192584409768961e+03	4.630541177056401e+00	7.540950754174321e+02	5.402731056948236e+03	
554	1.900000000000000e+01	3.000000000000000e+00	1.243472574399079e-02	-1.982800778024255e-01	5.027538146120531e+03	4.245194501791033e+00	7.533313342530234e+02	5.244378368734684e+03	
555	2.000000000000000e+01	3.000000000000000e+00	1.292013629396888e-02	-1.938393775275021e-01	4.862479866798167e+03	4.109438152872031e+00	7.528308565230933e+02	5.086332707960446e+03	
556	2.100000000000000e+01	3.000000000000000e+00	1.338833693968564e-02	-1.892366200912798e-01	4.697426221142332e+03	4.159323610835784e+00	7.524928730279757e+02	4.928664755011900e+03	
557	2.200000000000000e+01	3.000000000000000e+00	1.383932305713401e-02	-1.844772751365228e-01	4.532386576871718e+03	4.340394767773716e+00	7.522411272172418e+02	4.771443081623669e+03	
558	2.300000000000000e+01	3.000000000000000e+00	1.427309467054347e-02	-1.795668195483526e-01	4.367365578639375e+03	4.609837462276204e+00	7.520200579018533e+02	4.614734480673895e+03	
559	2.400000000000000e+01	3.000000000000000e+00	1.468965565729577e-02	-1.745107368136288e-01	4.202365083617976e+03	4.936469246862835e+00	7.517901642243198e+02	4.458605250169510e+03	
560	2.500000000000000e+01	3.000000000000000e+00	1.508901313181010e-02	-1.693145161700789e-01	4.037385501387423e+03	5.299819139925383e+00	7.515233198172926e+02	4.303122604563119e+03	
561	2.600000000000000e+01	3.000000000000000e+00	1.547117696606865e-02	-1.639836518381546e-01	3.872426626120108e+03	5.689033964937003e+00	7.511983588131457e+02	4.148355759059272e+03	
562	2.700000000000000e+01	3.000000000000000e+00	1.583615939845036e-02	-1.585236424862549e-01	3.707488047861492e+03	6.102005400901170e+00	7.507969936447321e+02	3.994376439193726e+03	
563	2.800000000000000e+01	3.000000000000000e+00	1.618397468184644e-02	-1.529399909832505e-01	3.542569193711798e+03	6.544880733020001e+00	7.502999937604106e+02	3.841258682323351e+03	
564	2.900000000000000e+01	3.000000000000000e+00	1.651463872274956e-02	-1.472382044187373e-01	3.377669001396671e+03	7.031953732853587e+00	7.496835156729214e+02	3.689077879602259e+03	
565	3.000000000000000e+01	3.000000000000000e+00	1.682816866193328e-02	-1.414237943012915e-01	3.212785158137529e+03	7.585786686329634e+00	7.489155210498545e+02	3.537909105874353e+03	
566	3.100000000000000e+01	3.000000000000000e+00	1.712458234331607e-02	-1.355022767591896e-01	3.047912759528975e+03	8.237258119822599e+00	7.479523444286024e+02	3.387824964783740e+03	
567	3.200000000000000e+01	3.000000000000000e+00	1.740389760960081e-02	-1.294791724468025e-01	2.883042132997365e+03	9.025027031007852e+00	7.467357020068863e+02	3.238893508591183e+03	
568	3.300000000000000e+01	3.000000000000000e+00	1.766613134991995e-02	-1.233600056814045e-01	2.718155423426599e+03	9.993621018701631e+00	7.451907990317409e+02	3.091177389906223e+03	
569	3.400000000000000e+01	3.000000000000000e+00	1.791129820452147e-02	-1.171503020739158e-01	2.553221334694802e+03	1.118894615231125e+01	7.432267563420723e+02	2.944736441478265e+03	
570	3.500000000000000e+01	3.000000000000000e+00	1.813940880229851e-02	-1.108555835430402e-01	2.388187142781576e+03	1.264941251244490e+01	7.407414258744182e+02	2.799637645831703e+03	
571	3.600000000000000e+01	3.000000000000000e+00	1.835046736898754e-02	-1.044813590789284e-01	2.222966751355521e+03	1.438994683582536e+01	7.376339307583152e+02	2.655979436043563e+03	
572	3.700000000000000e+01	3.000000000000000e+00	1.854446850308791e-02	-9.803310890680675e-02	2.057423228642355e+03	1.637467951449542e+01	7.338301661803532e+02	2.513942328511551e+03	
573	3.800000000000000e+01	3.000000000000000e+00	1.872139290467550e-02	-9.151625874161533e-02	1.891344228677008e+03	1.847153876126049e+01	7.293293686145412e+02	2.373886565176817e+03	
574	3.900000000000000e+01	3.000000000000000e+00	1.888120195504656e-02	-8.493613956810740e-02	1.724409826302316e+03	2.037730344620476e+01	7.242843001331883e+02	2.236532545846148e+03	
575	4.000000000000000e+01	3.000000000000000e+00	1.902383155021330e-02	-7.829792677430437e-02	1.556156961695222e+03	2.149264554384560e+01	7.191343900655324e+02	2.103285916647585e+03	
576	4.100000000000000e+01	3.000000000000000e+00	1.914918719906093e-02	-7.160655062109003e-02	1.385958987266536e+03	2.070849900845379e+01	7.148220912720656e+02	1.976813441974535e+03	
577	4.200000000000000e+01	3.000000000000000e+00	1.925714689019174e-02	-6.486656806177443e-02	1.213080982205409e+03	1.602859786589697e+01	7.131351472797975e+02	1.862036885777514e+03	
578	4.300000000000000e+01	3.000000000000000e+00	1.934759052941273e-02	-5.808198732787133e-02	1.036979243089227e+03	3.872125391117841e+00	7.172419770893442e+02	1.767782376717966e+03	
579	4.400000000000000e+01	3.000000000000000e+00	1.942050576508249e-02	-5.125603932723393e-02	8.583617658653284e+02	-2.223798032311379e+01	7.324038932957579e+02	1.709127778911303e+03	
580	4.500000000000000e+01	3.000000000000000e+00	1.947631050087087e-02	-4.439096438479669e-02	6.821414318774580e+02	-7.437313501922701e+01	7.669373721186414e+02	1.710288285914357e+03	
581	4.600000000000000e+01	3.000000000000000e+00	1.951671526877779e-02	-3.748787219375558e-02	5.269829578145326e+02	-1.748285408671201e+02	8.307392748588993e+02	1.803621454422781e+03	
582	4.700000000000000e+01	3.000000000000000e+00	1.954723914778954e-02	-3.054822814726650e-02	4.408224755081457e+02	-3.702819313720299e+02	9.319861374832356e+02	2.032801761290098e+03	
583	4.800000000000000e+01	3.000000000000000e+00	1.958203065874419e-02	-2.357623505275979e-02	5.745964982623774e+02	-7.281427963880540e+02	1.013424809428104e+03	2.409408443432508e+03	
584	4.900000000000000e+01	3.000000000000000e+00	1.966088825811059e-02	-1.661063329830564e-02	8.099924093787074e+02	-1.544880879584690e+03	8.837209422172523e+02	2.944363941826262e+03	
585	5.000000000000000e+01	3.000000000000000e+00	1.979197398050582e-02	-9.739725976133264e-03	7.534232751715239e+02	-2.335446581111656e+03	2.146786555949952e+02	3.118567730501804e+03	
586	5.100000000000000e+01	3.000000000000000e+00	1.990607557964523e-02	-2.993728584948421e-03	5.798949066787422e+02	-1.377602191032509e+03	-4.107763732604337e+02	2.122909278057815e+03	
587	1.000000000000000e+00	2.000000000000000e+00	1.043413923496480e-03	-2.435117359324101e-01	1.034751617381203e+04	-1.858000327211621e+02	1.412664517866561e+02	1.053710468527367e+04	
588	2.000000000000000e+00	2.000000000000000e+00	2.080940033693746e-03	-2.430666553843484e-01	1.026978687281754e+04	-1.633096427191208e+02	2.712140444886222e+02	1.044718771412741e+04	
589	3.000000000000000e+00	2.000000000000000e+00	3.107252582073877e-03	-2.423308645208086e-01	1.014712972294068e+04	-1.314414471533038e+02	3.810885211772454e+02	1.030679092358913e+04	
590	4.000000000000000e+00	2.000000000000000e+00	4.117994189826090e-03	-2.413124327092583e-01	9.988175750248340e+03	-9.640010542739547e+01	4.662853918610274e+02	1.012760378646055e+04	
591	5.000000000000000e+00	2.000000000000000e+00	5.109941958414203e-03	-2.400210731561446e-01	9.802287182614022e+03	-6.366206540164265e+01	5.265130066086438e+02	9.921986613019248e+03	
592	6.000000000000000e+00	2.000000000000000e+00	6.080946273634128e-03	-2.384671254480780e-01	9.598064760464806e+03	-3.674754168616428e+01	5.647777886043566e+02	9.700799137168184e+03	
593	7.000000000000000e+00	2.000000000000000e+00	7.029724448202753e-03	-2.366607682532516e-01	9.382461061853859e+03	-1.698652201593326e+01	5.858456520700760e+02	9.472194856215392e+03	
594	8.000000000000000e+00	2.000000000000000e+00	7.955607413860893e-03	-2.346115398420774e-01	9.160528728928961e+03	-4.013717629408106e+00	5.948196659346577e+02	9.241432789059307e+03	
595	9.000000000000000e+00	2.000000000000000e+00	8.858311785858042e-03	-2.323281394265106e-01	8.935613511234882e+03	3.471321692902805e+00	5.961905613013073e+02	9.011378187365952e+03	
596	1.000000000000000e+01	2.000000000000000e+00	9.737769992269669e-03	-2.298184281742818e-01	8.709746285787056e+03	7.040375098917437e+00	5.934087573043547e+02	8.783258278162397e+03	
597	1.100000000000000e+01	2.000000000000000e+00	1.059402010780026e-02	-2.270895414780963e-01	8.484049005126804e+03	8.120474141575372e+00	5.888436652550956e+02	8.557354258812336e+03	
598	1.200000000000000e+01	2.000000000000000e+00	1.142714198583466e-02	-2.241480432193995e-01	8.259063951806753e+03	7.814751297883546e+00	5.839523334362962e+02	8.333493545914644e+03	
599	1.300000000000000e+01	2.000000000000000e+00	1.223722375606548e-02	-2.210000788391560e-01	8.034987213794897e+03	6.880724794715377e+00	5.795171063715836e+02	8.111341079318265e+03	
600	1.400000000000000e+01	2.000000000000000e+00	1.302434612082440e-02	-2.176515059716059e-01	7.811821680723313e+03	5.785595362319228e+00	5.758708684880423e+02	7.890545506785362e+03	
601	1.500000000000000e+01	2.000000000000000e+00	1.378857631900669e-02	-2.141079959098623e-01	7.589472729087079e+03	4.784017647380054e+00	5.730759163734110e+02	7.670799624103716e+03	
602	1.600000000000000e+01	2.000000000000000e+00	1.452996705118753e-02	-2.103751071081705e-01	7.367806009133597e+03	3.990189857879685e+00	5.710508070339288e+02	7.451857454156762e+03	
603	1.700000000000000e+01	2.000000000000000e+00	1.524855779049496e-02	-2.064583353710007e-01	7.146680827309133e+03	3.433929893745386e+00	5.696524889761688e+02	7.233532475231002e+03	
604	1.800000000000000e+01	2.000000000000000e+00	1.594437709268042e-02	-2.023631462231877e-01	6.925967957300603e+03	3.099788977858609e+00	5.687248648106358e+02	7.015689243644691e+03	
605	1.900000000000000e+01	2.000000000000000e+00	1.661744516168871e-02	-1.980949945137155e-01	6.705557682058285e+03	2.952099390250737e+00	5.681243730019401e+02	6.798233800746198e+03	
606	2.000000000000000e+01	2.000000000000000e+00	1.726777628110977e-02	-1.936593353679230e-01	6.485361948049520e+03	2.949741432651166e+00	5.677310107741993e+02	6.581104923861506e+03	
607	2.100000000000000e+01	2.000000000000000e+00	1.789538092578523e-02	-1.890616295907712e-01	6.265313239940846e+03	3.054020641527543e+00	5.674508380982323e+02	6.364266834784103e+03	
608	2.200000000000000e+01	2.000000000000000e+00	1.850026748874791e-02	-1.843073457302158e-01	6.045361892793212e+03	3.232258953115036e+00	5.672139722384873e+02	6.147703414555627e+03	
609	2.300000000000000e+01	2.000000000000000e+00	1.908244362985166e-02	-1.794019602990210e-01	5.825472933076610e+03	3.458928917919621e+00	5.669705496272479e+02	5.931413784351788e+03	
610	2.400000000000000e+01	2.000000000000000e+00	1.964191729205039e-02	-1.743509571256154e-01	5.605623093321950e+03	3.715532104508114e+00	5.666860634007942e+02	5.715409058172119e+03	
611	2.500000000000000e+01	2.000000000000000e+00	2.017869745050293e-02	-1.691598264322089e-01	5.385798354113233e+03	3.989968455813347e+00	5.663367814782177e+02	5.499710074190543e+03	
612	2.600000000000000e+01	2.000000000000000e+00	2.069279466658165e-02	-1.638340639858089e-01	5.165992181412079e+03	4.275832049166517e+00	5.659055156852480e+02	5.284345927549817e+03	
613	2.700000000000000e+01	2.000000000000000e+00	2.118422151925865e-02	-1.583791705001723e-01	4.946204514684186e+03	4.571862266619242e+00	5.653777604784513e+02	5.069353146074358e+03	
614	2.800000000000000e+01	2.000000000000000e+00	2.165299298313791e-02	-1.528006513538008e-01	4.726441506168299e+03	4.881646246280745e+00	5.647380946881087e+02	4.854775378243019e+03	
615	2.900000000000000e+01	2.000000000000000e+00	2.209912681857469e-02	-1.471040166044155e-01	4.506715965702572e+03	5.213571132008177e+00	5.639667009107748e+02	4.640663483519275e+03	
616	3.000000000000000e+01	2.000000000000000e+00	2.252264403370724e-02	-1.412947812012400e-01	4.287048430637178e+03	5.580947407328281e+00	5.630358888905655e+02	4.427075949051439e+03	
617	3.100000000000000e+01	2.000000000000000e+00	2.292356947051337e-02	-1.353784652015465e-01	4.067468701024130e+03	6.002137697668083e+00	5.619066060345683e+02	4.214079588788043e+03	
618	3.200000000000000e+01	2.000000000000000e+00	2.330193255187496e-02	-1.293605936655735e-01	3.848017550798533e+03	6.500418849483218e+00	5.605250967980387e+02	4.001750543402206e+03	
619	3.300000000000000e+01	2.000000000000000e+00	2.365776819822081e-02	-1.232466957107230e-01	3.628748084389536e+03	7.103153583113702e+00	5.588201561746250e+02	3.790175704716602e+03	
620	3.400000000000000e+01	2.000000000000000e+00	2.399111786847574e-02	-1.170423019241323e-01	3.409725802136331e+03	7.839629580929035e+00	5.567018625133259e+02	3.579454900669495e+03	
621	3.500000000000000e+01	2.000000000000000e+00	2.430203058322161e-02	-1.107529389285316e-01	3.191025774616007e+03	8.736597041538083e+00	5.540633425258397e+02	3.369704610174490e+03	
622	3.600000000000000e+01	2.000000000000000e+00	2.459056362200707e-02	-1.043841193254784e-01	2.972724279922753e+03	9.810027680413938e+00	5.507881454012919e+02	3.161064882377323e+03	
623	3.700000000000000e+01	2.000000000000000e+00	2.485678231117142e-02	-9.794132444062187e-02	2.754880615409017e+03	1.105076549077700e+01	5.467674062899237e+02	2.953713024588948e+03	
624	3.800000000000000e+01	2.000000000000000e+00	2.510075787860293e-02	-9.142997617280474e-02	2.537502300717670e+03	1.240020952011037e+01	5.419335982520365e+02	2.747891677382478e+03	
625	3.900000000000000e+01	2.000000000000000e+00	2.532256167144622e-02	-8.485539264053381e-02	2.320483127217779e+03	1.370920087696948e+01	5.363221539352397e+02	2.543967719616885e+03	
626	4.000000000000000e+01	2.000000000000000e+00	2.552225302748985e-02	-7.822271995075344e-02	2.103498112702566e+03	1.466720494231279e+01	5.301805113350783e+02	2.342558443158382e+03	
627	4.100000000000000e+01	2.000000000000000e+00	2.569985671068345e-02	-7.153682868414599e-02	1.885832659688752e+03	1.467594353648004e+01	5.241593988492755e+02	2.144807627273339e+03	
628	4.200000000000000e+01	2.000000000000000e+00	2.585532427154831e-02	-6.480215794724641e-02	1.666117445485881e+03	1.261258218728993e+01	5.196551608266091e+02	1.953009031634777e+03	
629	4.300000000000000e+01	2.000000000000000e+00	2.598847297049997e-02	-5.802247832391344e-02	1.441956248699051e+03	6.364168581736532e+00	5.194237287932175e+02	1.772040817991887e+03	
630	4.400000000000000e+01	2.000000000000000e+00	2.609890144992735e-02	-5.120053508206786e-02	1.209505633206659e+03	-8.153918523949425e+00	5.287953283343447e+02	1.612821372934305e+03	
631	4.500000000000000e+01	2.000000000000000e+00	2.618590545964009e-02	-4.433746519926424e-02	9.636912311439804e+02	-3.905908786197186e+01	5.576977764599973e+02	1.499871808435721e+03	
632	4.600000000000000e+01	2.000000000000000e+00	2.624856517386257e-02	-3.743207121981704e-02	7.007247624465984e+02	-1.037749984989599e+02	6.262730790663270e+02	1.488654339870184e+03	
633	4.700000000000000e+01	2.000000000000000e+00	2.628649185209797e-02	-3.047891914798049e-02	4.414146054953989e+02	-2.372267671147252e+02	7.647157094331274e+02	1.673234764650017e+03	
634	4.800000000000000e+01	2.000000000000000e+00	2.630509662323159e-02	-2.347173236447431e-02	2.780473816506293e+02	-5.397743795599425e+02	1.051941865726117e+03	2.257245930017139e+03	
635	4.900000000000000e+01	2.000000000000000e+00	2.632864686623779e-02	-1.638972686231171e-02	1.001941203946551e+03	-1.066770263579179e+03	1.297042701483849e+03	3.317958139242047e+03	
636	5.000000000000000e+01	2.000000000000000e+00	2.652452708735004e-02	-9.385450287868352e-03	1.565478176190929e+03	-3.650863109960898e+03	9.045571025735447e+02	5.521151204312112e+03	
637	5.100000000000000e+01	2.000000000000000e+00	2.681761661917206e-02	-2.785085444767360e-03	8.663900811540144e+02	-3.969877528209847e+03	-8.095549822943474e+02	5.100098182075758e+03	
638	1.000000000000000e+00	1.000000000000000e+00	1.309787433719335e-03	-2.431501764773271e-01	1.303658256251566e+04	-7.898420779799795e+01	7.972429417004207e+01	1.311653595881471e+04	
639	2.000000000000000e+00	1.000000000000000e+00	2.612555885470271e-03	-2.427089171169225e-01	1.293799344090596e+04	-6.962076045639898e+01	1.533115427872837e+02	1.301122764876901e+04	
640	3.000000000000000e+00	1.000000000000000e+00	3.901832476799775e-03	-2.419789623809876e-01	1.278147933051446e+04	-5.626243010782684e+01	2.159364388274776e+02	1.284500399746452e+04	
641	4.000000000000000e+00	1.000000000000000e+00	5.172117906931474e-03	-2.409677523725617e-01	1.257713829133961e+04	-4.143773265924993e+01	2.649329884176016e+02	1.262969591189140e+04	
642	5.000000000000000e+00	1.000000000000000e+00	6.419119817041232e-03	-2.396843764225773e-01	1.233643303084682e+04	-2.743961713343191e+01	2.999467266455478e+02	1.237841746794701e+04	
643	6.000000000000000e+00	1.000000000000000e+00	7.639780447134420e-03	-2.381386745460675e-01	1.207051250204055e+04	-1.580663723565193e+01	3.224736113119196e+02	1.210351466543518e+04	
644	7.000000000000000e+00	1.000000000000000e+00	8.832142027069733e-03	-2.363404990309086e-01	1.178898945316441e+04	-7.182404783863774e+00	3.350796001503932e+02	1.181519292504353e+04	
645	8.000000000000000e+00	1.000000000000000e+00	9.995120429263205e-03	-2.342992229184105e-01	1.149931943398115e+04	-1.479478613121401e+00	3.406233902070572e+02	1.152095798116434e+04	
646	9.000000000000000e+00	1.000000000000000e+00	1.112825539920053e-02	-2.320234968142146e-01	1.120671947587233e+04	1.821736965786314e+00	3.416931555538234e+02	1.122571824827090e+04	
647	1.000000000000000e+01	1.000000000000000e+00	1.223148546240471e-02	-2.295212003673036e-01	1.091444882139898e+04	3.389647767451564e+00	3.403182326907792e+02	1.093226775598256e+04	
648	1.100000000000000e+01	1.000000000000000e+00	1.330497123240021e-02	-2.267995158834401e-01	1.062425683702048e+04	3.850280010855954e+00	3.379083783113165e+02	1.064188722570883e+04	
649	1.200000000000000e+01	1.000000000000000e+00	1.434897153575007e-02	-2.238650589637976e-01	1.033684851192187e+04	3.696448536829678e+00	3.353310452578137e+02	1.035489349074598e+04	
650	1.300000000000000e+01	1.000000000000000e+00	1.536376553760455e-02	-2.207240203286519e-01	1.005228205134039e+04	3.269667100893045e+00	3.330444216000470e+02	1.007106370973962e+04	
651	1.400000000000000e+01	1.000000000000000e+00	1.634960974274347e-02	-2.173822929761225e-01	9.770267135351371e+03	2.780770704108875e+00	3.312321371647796e+02	9.789925883188960e+03	
652	1.500000000000000e+01	1.000000000000000e+00	1.730671875646018e-02	-2.138455740542826e-01	9.490366286070985e+03	2.343686126110214e+00	3.299136164679493e+02	9.510938167940560e+03	
653	1.600000000000000e+01	1.000000000000000e+00	1.823526068541140e-02	-2.101194402056416e-01	9.212117455446660e+03	2.008094159442635e+00	3.290232661729411e+02	9.233587584769146e+03	
654	1.700000000000000e+01	1.000000000000000e+00	1.913536054616669e-02	-2.062093997939927e-01	8.935099681851312e+03	1.785256751968845e+00	3.284616307251684e+02	8.957435726206611e+03	
655	1.800000000000000e+01	1.000000000000000e+00	2.000710728991884e-02	-2.021209270120114e-01	8.658961341477097e+03	1.666109439408189e+00	3.281251733358275e+02	8.682132529060425e+03	
656	1.900000000000000e+01	1.000000000000000e+00	2.085056178657093e-02	-1.978594828018660e-01	8.383426041451263e+03	1.632807390293806e+00	3.279214371049391e+02	8.407412663489409e+03	
657	2.000000000000000e+01	1.000000000000000e+00	2.166576432822624e-02	-1.934305267394797e-01	8.108286652578935e+03	1.665464205490778e+00	3.277750604625386e+02	8.133083858711291e+03	
658	2.100000000000000e+01	1.000000000000000e+00	2.245274100007414e-02	-1.888395230675408e-01	7.833394222717958e+03	1.745679399202771e+00	3.276285696589723e+02	7.859012713101684e+03	
659	2.200000000000000e+01	1.000000000000000e+00	2.321150873735560e-02	-1.840919431689881e-01	7.558645757854724e+03	1.858086296304521e+00	3.274405197979577e+02	7.585111013626601e+03	
660	2.300000000000000e+01	1.000000000000000e+00	2.394207914314957e-02	-1.791932660468608e-01	7.283973002292135e+03	1.990781068502116e+00	3.271825404358363e+02	7.311324006586035e+03	
661	2.400000000000000e+01	1.000000000000000e+00	2.464446126199000e-02	-1.741489778312514e-01	7.009333194492489e+03	2.135193952778678e+00	3.268361420311870e+02	7.037621137409930e+03	
662	2.500000000000000e+01	1.000000000000000e+00	2.531866354601954e-02	-1.689645709466058e-01	6.734702118688463e+03	2.285747169624273e+00	3.263896894376637e+02	6.763989290128995e+03	
663	2.600000000000000e+01	1.000000000000000e+00	2.596469525167045e-02	-1.636455433081129e-01	6.460069442248500e+03	2.439496765827606e+00	3.258356754688709e+02	6.490428341983878e+03	
664	2.700000000000000e+01	1.000000000000000e+00	2.658256748932696e-02	-1.581973977392630e-01	6.185436208515128e+03	2.595861877609742e+00	3.251682746625470e+02	6.216948799804999e+03	
665	2.800000000000000e+01	1.000000000000000e+00	2.717229413057297e-02	-1.526256416827078e-01	5.910814343530312e+03	2.756482680770915e+00	3.243810817548610e+02	5.943571319665297e+03	
666	2.900000000000000e+01	1.000000000000000e+00	2.773389276392611e-02	-1.469357871863148e-01	5.636228082058095e+03	2.925207468348816e+00	3.234649174857625e+02	5.670327987712649e+03	
667	3.000000000000000e+01	1.000000000000000e+00	2.826738588324736e-02	-1.411333510625800e-01	5.361717265077680e+03	3.108174813263552e+00	3.224055993766466e+02	5.397265313499244e+03	
668	3.100000000000000e+01	1.000000000000000e+00	2.877280249131224e-02	-1.352238550206854e-01	5.087342480411880e+03	3.313922777016472e+00	3.211816281434081e+02	5.124448938946923e+03	
669	3.200000000000000e+01	1.000000000000000e+00	2.925018029884731e-02	-1.292128254349632e-01	4.813191950710568e+03	3.553411899893185e+00	3.197618336278476e+02	4.851970052977765e+03	
670	3.300000000000000e+01	1.000000000000000e+00	2.969956868746342e-02	-1.231057922181520e-01	4.539389881826245e+03	3.839788240551066e+00	3.181031731221874e+02	4.579953402211296e+03	
671	3.400000000000000e+01	1.000000000000000e+00	3.012103256680220e-02	-1.169082859857711e-01	4.266105576846513e+03	4.187622773857413e+00	3.161491041121160e+02	4.308566544846491e+03	
672	3.500000000000000e+01	1.000000000000000e+00	3.051465716804753e-02	-1.106258322962432e-01	3.993561896984136e+03	4.611231766514706e+00	3.138292996794986e+02	4.038029559932592e+03	
673	3.600000000000000e+01	1.000000000000000e+00	3.088055363959556e-02	-1.042639411864186e-01	3.722040408862997e+03	5.121470804876701e+00	3.110620070807605e+02	3.768623711793412e+03	
674	3.700000000000000e+01	1.000000000000000e+00	3.121886498688616e-02	-9.782808943060427e-02	3.451878505698528e+03	5.720036524025275e+00	3.077611916717771e+02	3.500696501992151e+03	
675	3.800000000000000e+01	1.000000000000000e+00	3.152977133128649e-02	-9.132369182983291e-02	3.183450336601172e+03	6.389635585254474e+00	3.038520138188059e+02	3.234659005698550e+03	
676	3.900000000000000e+01	1.000000000000000e+00	3.181349248936648e-02	-8.475605620501407e-02	2.917117441866856e+03	7.077017190050618e+00	2.993007257537616e+02	2.970969365543858e+03	
677	4.000000000000000e+01	1.000000000000000e+00	3.207028419994208e-02	-7.813031425389010e-02	2.653124267610690e+03	7.662938945963077e+00	2.941698728022286e+02	2.710093964739684e+03	
678	4.100000000000000e+01	1.000000000000000e+00	3.230042138447485e-02	-7.145131638149269e-02	2.391393321571432e+03	7.906447803831313e+00	2.887202601074664e+02	2.452436998540135e+03	
679	4.200000000000000e+01	1.000000000000000e+00	3.250415647518009e-02	-6.472347112696691e-02	2.131133421899338e+03	7.335489346509359e+00	2.836009768476391e+02	2.198234681418571e+03	
680	4.300000000000000e+01	1.000000000000000e+00	3.268163057760951e-02	-5.795049755735742e-02	1.870085321547171e+03	5.014870038201071e+00	2.802347581885226e+02	1.947463444555454e+03	
681	4.400000000000000e+01	1.000000000000000e+00	3.283269454973180e-02	-5.113502314983686e-02	1.603030826717176e+03	-9.680751589887677e-01	2.815602846313425e+02	1.699975662398339e+03	
682	4.500000000000000e+01	1.000000000000000e+00	3.295655278217775e-02	-4.427794270373477e-02	1.318659721084562e+03	-1.483274940864881e+01	2.940662299818408e+02	1.457429915750675e+03	
683	4.600000000000000e+01	1.000000000000000e+00	3.305103813772755e-02	-3.737706335286986e-02	9.930911291508984e+02	-4.617548973125480e+01	3.306726826135865e+02	1.231849340313257e+03	
684	4.700000000000000e+01	1.000000000000000e+00	3.311114850471631e-02	-3.042558170265674e-02	5.730239844791578e+02	-1.221620994219416e+02	4.308920053938903e+02	1.107228690243899e+03	
685	4.800000000000000e+01	1.000000000000000e+00	3.312569590849551e-02	-2.340198416148027e-02	-2.588558514428563e+01	-3.014727773340519e+02	6.440161670781217e+02	1.317184722934114e+03	
686	4.900000000000000e+01	1.000000000000000e+00	3.307642740356099e-02	-1.628757677789635e-02	-9.789020940635550e+02	-8.821503908023547e+02	1.426098145463241e+03	2.853836816298144e+03	
687	5.000000000000000e+01	1.000000000000000e+00	3.293531950654751e-02	-8.869332261325594e-03	1.967335530938546e+03	-1.126792035467585e+03	1.513259981177905e+03	4.328215392021582e+03	
688	5.100000000000000e+01	1.000000000000000e+00	3.349258647237131e-02	-2.104565262953397e-03	7.400430442070694e+02	-1.352823251596317e+04	-3.617475971391702e+02	1.428660676147752e+04	
