"PointID"	"x"	"y"	"Displacement_1"	"Displacement_2"	"Sxx"	"Syy"	"Sxy"	"Von_Mises_Stress"
0	0.000000000000000e+00	1.200000000000000e+01	0.000000000000000e+00	-3.086173194652437e-02	-2.663740496702803e+03	-1.128315247047942e+03	3.970952751602778e+02	1.728661137266688e+03	
1	0.000000000000000e+00	0.000000000000000e+00	0.000000000000000e+00	-3.055338650784882e-02	2.020247484577278e+03	5.524184198222811e+01	7.080850591132773e+01	1.970102168281626e+03	
2	5.200000000000000e+01	0.000000000000000e+00	4.804046191263541e-03	0.000000000000000e+00	-5.572665916147730e+02	3.660376832364713e+03	-1.813185527363627e+03	5.562291171666677e+03	
3	5.200000000000000e+01	1.200000000000000e+01	-5.069836466780922e-03	4.141478179890908e-04	1.869886097684255e+00	1.864695260822093e+00	8.748956615691925e-01	1.749799022550222e+00	
4	0.000000000000000e+00	1.100000000000000e+01	0.000000000000000e+00	-3.082882825068964e-02	-1.715304023827957e+03	-7.826391384530748e+02	2.232990329477755e+02	1.034076216181858e+03	
5	0.000000000000000e+00	1.000000000000000e+01	0.000000000000000e+00	-3.080813693886094e-02	-1.280521571831319e+03	-5.428675682894952e+02	1.419563649427498e+02	7.904048754482211e+02	
6	0.000000000000000e+00	9.000000000000000e+00	0.000000000000000e+00	-3.079709418090758e-02	-9.206920866135383e+02	-3.761304643622908e+02	1.091093827705045e+02	5.866573020624156e+02	
7	0.000000000000000e+00	8.000000000000000e+00	0.000000000000000e+00	-3.078815632752570e-02	-5.929951962646714e+02	-2.744143755904475e+02	9.313868524064713e+01	3.690433552509616e+02	
8	0.000000000000000e+00	7.000000000000000e+00	0.000000000000000e+00	-3.077779258922995e-02	-2.771106740718134e+02	-2.036781527536831e+02	8.450336132018731e+01	1.842704737194165e+02	
9	0.000000000000000e+00	6.000000000000000e+00	0.000000000000000e+00	-3.076404755212895e-02	3.436533928911038e+01	-1.502097466653060e+02	7.943701164417831e+01	2.435342227098883e+02	
10	0.000000000000000e+00	5.000000000000000e+00	0.000000000000000e+00	-3.074568832599019e-02	3.454821225395258e+02	-1.076187858963976e+02	7.630250188013147e+01	4.781095276169771e+02	
11	0.000000000000000e+00	4.000000000000000e+00	0.000000000000000e+00	-3.072179449131283e-02	6.592056260674983e+02	-7.293955554118989e+01	7.429692507480303e+01	7.470720843768039e+02	
12	0.000000000000000e+00	3.000000000000000e+00	0.000000000000000e+00	-3.069154827846962e-02	9.783068806162408e+02	-4.497929209690777e+01	7.298531102152928e+01	1.033645013418805e+03	
13	0.000000000000000e+00	2.000000000000000e+00	0.000000000000000e+00	-3.065410153697308e-02	1.305815414596412e+03	-2.368509502445155e+01	7.210052102629290e+01	1.337297852242045e+03	
14	0.000000000000000e+00	1.000000000000000e+00	0.000000000000000e+00	-3.060846530109550e-02	1.645408056093275e+03	-9.978510902695561e+00	7.144250095474794e+01	1.661541696726682e+03	
15	1.000000000000000e+00	0.000000000000000e+00	2.003748480840533e-04	-3.053497845732575e-02	2.014386385390037e+03	5.514201784566873e+01	4.596120715791614e+00	1.959265931173425e+03	
16	2.000000000000000e+00	0.000000000000000e+00	3.995821193746103e-04	-3.047995470522253e-02	1.997290342428666e+03	5.483478446926831e+01	8.828925258443540e+00	1.942535815456753e+03	
17	3.000000000000000e+00	0.000000000000000e+00	5.965522033369620e-04	-3.038888977871777e-02	1.970316661015293e+03	5.430347580359476e+01	1.241196265146328e+01	1.916173988230850e+03	
18	4.000000000000000e+00	0.000000000000000e+00	7.903901242663237e-04	-3.026265978954409e-02	1.935415264484625e+03	5.353783892031249e+01	1.518595911385083e+01	1.882122498209241e+03	
19	5.000000000000000e+00	0.000000000000000e+00	9.804170779258911e-04	-3.010234326790195e-02	1.894768950867770e+03	5.254799922320189e+01	1.712892227877551e+01	1.842539452655478e+03	
20	6.000000000000000e+00	0.000000000000000e+00	1.166174282049726e-03	-2.990911871855003e-02	1.850455741263012e+03	5.136887535013310e+01	1.833004510368394e+01	1.799460339466874e+03	
21	7.000000000000000e+00	0.000000000000000e+00	1.347396687493696e-03	-2.968417825558060e-02	1.804210374203970e+03	5.005367095991174e+01	1.894390502143208e+01	1.754565822557224e+03	
22	8.000000000000000e+00	0.000000000000000e+00	1.523969495714529e-03	-2.942866784462871e-02	1.757313651705690e+03	4.866122540770955e+01	1.914380830908079e+01	1.709081348409219e+03	
23	9.000000000000000e+00	0.000000000000000e+00	1.695880486254447e-03	-2.914365545673535e-02	1.710594066067943e+03	4.724379896453684e+01	1.908723165932531e+01	1.663788267996454e+03	
24	1.000000000000000e+01	0.000000000000000e+00	1.863177590165108e-03	-2.883012202058792e-02	1.664501684196354e+03	4.583966248062074e+01	1.889765681552354e+01	1.619103216684265e+03	
25	1.100000000000000e+01	0.000000000000000e+00	2.025936443067153e-03	-2.848896742265977e-02	1.619211375793544e+03	4.447135482497451e+01	1.866042199820260e+01	1.575182205027944e+03	
26	1.200000000000000e+01	0.000000000000000e+00	2.184238715736469e-03	-2.812102416569306e-02	1.574723375365741e+03	4.314800902918326e+01	1.842731906925451e+01	1.532018722836402e+03	
27	1.300000000000000e+01	0.000000000000000e+00	2.338159647105044e-03	-2.772707320123598e-02	1.530944101616602e+03	4.186944135290774e+01	1.822484606893640e+01	1.489520702741786e+03	
28	1.400000000000000e+01	0.000000000000000e+00	2.487762299175331e-03	-2.730785864840144e-02	1.487742472088787e+03	4.063021042796355e+01	1.806265367261705e+01	1.447563102486344e+03	
29	1.500000000000000e+01	0.000000000000000e+00	2.633096113383224e-03	-2.686409989550808e-02	1.444984278587777e+03	3.942274164810736e+01	1.794047433969269e+01	1.406019443891990e+03	
30	1.600000000000000e+01	0.000000000000000e+00	2.774197855424791e-03	-2.639650074513092e-02	1.402550094675196e+03	3.823932297998245e+01	1.785306813672357e+01	1.364777934292303e+03	
31	1.700000000000000e+01	0.000000000000000e+00	2.911093634422041e-03	-2.590575588158238e-02	1.360342327890861e+03	3.707315561659615e+01	1.779338008009294e+01	1.323747604262276e+03	
32	1.800000000000000e+01	0.000000000000000e+00	3.043801195392268e-03	-2.539255518373030e-02	1.318285932178680e+03	3.591875505442124e+01	1.775434107739624e+01	1.282858699730414e+03	
33	1.900000000000000e+01	0.000000000000000e+00	3.172332056645645e-03	-2.485758643597508e-02	1.276325930732431e+03	3.477197097234195e+01	1.772975151308342e+01	1.242060228552069e+03	
34	2.000000000000000e+01	0.000000000000000e+00	3.296693305199473e-03	-2.430153691985684e-02	1.234423719152176e+03	3.362981995953524e+01	1.771460028189322e+01	1.201316451477651e+03	
35	2.100000000000000e+01	0.000000000000000e+00	3.416889004380531e-03	-2.372509426591095e-02	1.192553256763782e+03	3.249025255930694e+01	1.770506930450154e+01	1.160603313643478e+03	
36	2.200000000000000e+01	0.000000000000000e+00	3.532921241109886e-03	-2.312894684448502e-02	1.150697691106839e+03	3.135192177393809e+01	1.769838541455370e+01	1.119905300777075e+03	
37	2.300000000000000e+01	0.000000000000000e+00	3.644790871929886e-03	-2.251378388944584e-02	1.108846622517093e+03	3.021398411587302e+01	1.769261390182849e+01	1.079212899742722e+03	
38	2.400000000000000e+01	0.000000000000000e+00	3.752498034879450e-03	-2.188029548351150e-02	1.066994035318919e+03	2.907594385485280e+01	1.768644597855554e+01	1.038520681582134e+03	
39	2.500000000000000e+01	0.000000000000000e+00	3.856042490952656e-03	-2.122917248662004e-02	1.025136839701205e+03	2.793754083335303e+01	1.767900241055651e+01	9.978259518410337e+02	
40	2.600000000000000e+01	0.000000000000000e+00	3.955423850992819e-03	-2.056110645577100e-02	9.832739439506913e+02	2.679867790908132e+01	1.766965949958838e+01	9.571278921945041e+02	
41	2.700000000000000e+01	0.000000000000000e+00	4.050641735830102e-03	-1.987678958226373e-02	9.414057827567208e+02	2.565938333236431e+01	1.765789465487457e+01	9.164271236891907e+02	
42	2.800000000000000e+01	0.000000000000000e+00	4.141695911072228e-03	-1.917691465652532e-02	8.995342516134338e+02	2.451980455865342e+01	1.764314427717563e+01	8.757256446596297e+02	
43	2.900000000000000e+01	0.000000000000000e+00	4.228586434497728e-03	-1.846217505867746e-02	8.576630261101964e+02	2.338023207861418e+01	1.762466466899994e+01	8.350271226947793e+02	
44	3.000000000000000e+01	0.000000000000000e+00	4.311313853186094e-03	-1.773326476178005e-02	8.157982733671219e+02	2.224115398511307e+01	1.760138923979465e+01	7.943375462198389e+02	
45	3.100000000000000e+01	0.000000000000000e+00	4.389879489900398e-03	-1.699087832162364e-02	7.739497884264657e+02	2.110334414382806e+01	1.757177702036268e+01	7.536662643767626e+02	
46	3.200000000000000e+01	0.000000000000000e+00	4.464285862076227e-03	-1.623571080960825e-02	7.321326026050031e+02	1.996798880665285e+01	1.753365264178691e+01	7.130274560256461e+02	
47	3.300000000000000e+01	0.000000000000000e+00	4.534537282043097e-03	-1.546845762068131e-02	6.903691117176469e+02	1.883685764950294e+01	1.748404808304771e+01	6.724420688827578e+02	
48	3.400000000000000e+01	0.000000000000000e+00	4.600640691012636e-03	-1.468981405351865e-02	6.486917496511285e+02	1.771252636004371e+01	1.741906695039110e+01	6.319402470160524e+02	
49	3.500000000000000e+01	0.000000000000000e+00	4.662606780084612e-03	-1.390047451121329e-02	6.071461780995078e+02	1.659865813927004e+01	1.733381374337643e+01	5.915642126825691e+02	
50	3.600000000000000e+01	0.000000000000000e+00	4.720451444492838e-03	-1.310113110265319e-02	5.657948596972794e+02	1.550035185228293e+01	1.722245809385840e+01	5.513714697148790e+02	
51	3.700000000000000e+01	0.000000000000000e+00	4.774197596899720e-03	-1.229247133034691e-02	5.247207028404587e+02	1.442456248681908e+01	1.707855155737749e+01	5.114380300222241e+02	
52	3.800000000000000e+01	0.000000000000000e+00	4.823877323605127e-03	-1.147517441765763e-02	4.840301813836055e+02	1.338059866623687e+01	1.689579183808254e+01	4.718611033337845e+02	
53	3.900000000000000e+01	0.000000000000000e+00	4.869534289302290e-03	-1.064990563559349e-02	4.438548439715552e+02	1.238068404383057e+01	1.666956688243140e+01	4.327602668054533e+02	
54	4.000000000000000e+01	0.000000000000000e+00	4.911226157763061e-03	-9.817307696674936e-03	4.043492985440641e+02	1.144056227568821e+01	1.639990419870483e+01	3.942754144844933e+02	
55	4.100000000000000e+01	0.000000000000000e+00	4.949026552093082e-03	-8.977987795436569e-03	3.656820223480952e+02	1.057983315386663e+01	1.609695445457236e+01	3.565585681783346e+02	
56	4.200000000000000e+01	0.000000000000000e+00	4.983025609960272e-03	-8.132498069596232e-03	3.280124658661852e+02	9.822237215136953e+00	1.579194893506043e+01	3.197539119599268e+02	
57	4.300000000000000e+01	0.000000000000000e+00	5.013327337466361e-03	-7.281305421455440e-03	2.914369107978974e+02	9.189931445084998e+00	1.555729964750149e+01	2.839568200326866e+02	
58	4.400000000000000e+01	0.000000000000000e+00	5.040039664233942e-03	-6.424744584577835e-03	2.558821927855614e+02	8.709528636857357e+00	1.556224169490491e+01	2.491245860380918e+02	
59	4.500000000000000e+01	0.000000000000000e+00	5.063250157307236e-03	-5.562934097033379e-03	2.207777671672655e+02	8.282310527793433e+00	1.613646376576396e+01	2.149322240704567e+02	
60	4.600000000000000e+01	0.000000000000000e+00	5.082958239811594e-03	-4.695655608070485e-03	1.846645273821065e+02	8.070137611194729e+00	1.834188671570410e+01	1.803642917312837e+02	
61	4.700000000000000e+01	0.000000000000000e+00	5.098949473212200e-03	-3.821926791704276e-03	1.412836131257439e+02	4.971916797792975e+00	2.332111706110028e+01	1.440707345706049e+02	
62	4.800000000000000e+01	0.000000000000000e+00	5.110156837749983e-03	-2.940104236170599e-03	8.076185111101009e+01	6.755239670689761e+00	4.516364600923647e+01	1.167732769955054e+02	
63	4.900000000000000e+01	0.000000000000000e+00	5.113924641575335e-03	-2.041214298893282e-03	-1.142288905024949e+02	-8.804755260185155e+01	6.970440565746756e+01	1.418459697224805e+02	
64	5.000000000000000e+01	0.000000000000000e+00	5.091809089362010e-03	-1.131725866124783e-03	-7.266522867985254e+02	-3.100875179782582e+01	5.446783116759324e+02	1.292523802732022e+03	
65	5.100000000000000e+01	0.000000000000000e+00	4.969688427916946e-03	0.000000000000000e+00	-2.446811144876413e+03	-3.365329929470323e+03	-4.543470049956388e+02	1.292053234756952e+03	
66	5.200000000000000e+01	1.000000000000000e+00	4.332759507690382e-03	3.827975239146755e-04	1.309180165974214e+03	2.785185866448532e+03	-1.056519267991824e+02	1.491054038718316e+03	
67	5.200000000000000e+01	2.000000000000000e+00	3.457044139880678e-03	4.781476395105150e-04	2.984397086290527e+02	6.013052917600054e+02	-1.930180624540059e+02	4.906642958064568e+02	
68	5.200000000000000e+01	3.000000000000000e+00	2.583250851373059e-03	4.844769858543939e-04	7.149274442197205e+01	-1.360947968019227e+01	-5.347079573548854e+01	1.366707449803372e+02	
69	5.200000000000000e+01	4.000000000000000e+00	1.720244012753674e-03	4.704061584053719e-04	1.346909966065857e+01	-1.467603266438380e+02	-8.661245561049352e+00	1.611630781306416e+02	
70	5.200000000000000e+01	5.000000000000000e+00	8.660444950934085e-04	4.535835242057372e-04	5.261622416386986e-01	-1.535805063785374e+02	7.668069471862682e+00	1.548678871519529e+02	
71	5.200000000000000e+01	6.000000000000000e+00	1.715100977085142e-05	4.389300583736493e-04	-2.153167097767871e+00	-1.257156325352716e+02	1.304892597439822e+01	1.262884822196213e+02	
72	5.200000000000000e+01	7.000000000000000e+00	-8.289858898940190e-04	4.278456190164658e-04	-2.126033265666783e+00	-8.924236278806464e+01	1.397759505991101e+01	9.149178938074392e+01	
73	5.200000000000000e+01	8.000000000000000e+00	-1.674343430720136e-03	4.204877429590307e-04	-1.617219519205958e+00	-5.405750909331833e+01	1.256984186826190e+01	5.815485937554314e+01	
74	5.200000000000000e+01	9.000000000000000e+00	-2.520445043018600e-03	4.164103739562091e-04	-1.395827052562690e+00	-2.544936422548851e+01	9.663138486374059e+00	3.085575525176298e+01	
75	5.200000000000000e+01	1.000000000000000e+01	-3.368339391357452e-03	4.147599594752645e-04	-1.744779630183881e+00	-7.058042284589419e+00	5.839953465129194e+00	1.283164003291078e+01	
76	5.200000000000000e+01	1.100000000000000e+01	-4.218393056267590e-03	4.143801166886899e-04	-1.948705691528021e+00	-2.132200811829399e-02	2.318632716059749e+00	5.021856086249831e+00	
77	5.100000000000000e+01	1.200000000000000e+01	-5.069605036591274e-03	-4.375230647587564e-04	8.119711021122089e-02	-1.858880186714102e+00	2.291735431532081e+00	4.977158332884660e+00	
78	5.000000000000000e+01	1.200000000000000e+01	-5.069238730222415e-03	-1.290579650327348e-03	-6.529763408925636e+00	-1.454352698610996e+00	5.695376929184030e+00	1.247032747526316e+01	
79	4.900000000000000e+01	1.200000000000000e+01	-5.067659310039696e-03	-2.145813545008684e-03	-2.394114711444890e+01	-9.304485198757351e-01	9.389479481150023e+00	2.970086782432528e+01	
80	4.800000000000000e+01	1.200000000000000e+01	-5.063777424514110e-03	-3.002987049080238e-03	-5.113720955524599e+01	-1.053304497326757e+00	1.241027246166842e+01	5.589684245234296e+01	
81	4.700000000000000e+01	1.200000000000000e+01	-5.056764832237446e-03	-3.861364065821620e-03	-8.552934986726746e+01	-1.687680033688408e+00	1.463585336541053e+01	8.880460807535876e+01	
82	4.600000000000000e+01	1.200000000000000e+01	-5.046042351053988e-03	-4.719990207339797e-03	-1.248240520431159e+02	-2.643024820380601e+00	1.616023840281087e+01	1.263836090406724e+02	
83	4.500000000000000e+01	1.200000000000000e+01	-5.031229312390411e-03	-5.577828045489407e-03	-1.672293467982294e+02	-3.787638806188610e+00	1.711440677193437e+01	1.669874354194844e+02	
84	4.400000000000000e+01	1.200000000000000e+01	-5.012097163317809e-03	-6.433828507015794e-03	-2.113968622320109e+02	-5.040950490322386e+00	1.762960938593930e+01	2.093465424102981e+02	
85	4.300000000000000e+01	1.200000000000000e+01	-4.988530111475505e-03	-7.286970871843367e-03	-2.563534484606647e+02	-6.351466414933887e+00	1.782861687138145e+01	2.525320362745684e+02	
86	4.200000000000000e+01	1.200000000000000e+01	-4.960491118516204e-03	-8.136283951371830e-03	-3.014444986691693e+02	-7.683410717281991e+00	1.781946835067632e+01	2.959150395026915e+02	
87	4.100000000000000e+01	1.200000000000000e+01	-4.927993104826124e-03	-8.980853948668717e-03	-3.462764943304367e+02	-9.011595595805870e+00	1.768982493033237e+01	3.391155135683768e+02	
88	4.000000000000000e+01	1.200000000000000e+01	-4.891076144154345e-03	-9.819822948437798e-03	-3.906547495130134e+02	-1.031993965188816e+01	1.750439454902656e+01	3.819426434770151e+02	
89	3.900000000000000e+01	1.200000000000000e+01	-4.849791043047370e-03	-1.065238173581515e-02	-4.345217005526841e+02	-1.160034174212437e+01	1.730614757693450e+01	4.243353470004458e+02	
90	3.800000000000000e+01	1.200000000000000e+01	-4.804188818037231e-03	-1.147776014943355e-02	-4.779032004584591e+02	-1.285090467287545e+01	1.712019493640575e+01	4.663111001403292e+02	
91	3.700000000000000e+01	1.200000000000000e+01	-4.754314913909397e-03	-1.229521728033429e-02	-5.208673849577102e+02	-1.407379319376079e+01	1.695864284706267e+01	5.079272850732294e+02	
92	3.600000000000000e+01	1.200000000000000e+01	-4.700206780296432e-03	-1.310403285173263e-02	-5.634967907577570e+02	-1.527327833738337e+01	1.682513867537833e+01	5.492552782962714e+02	
93	3.500000000000000e+01	1.200000000000000e+01	-4.641893548443943e-03	-1.390350032439325e-02	-6.058717493575202e+02	-1.645428682544472e+01	1.671847053414567e+01	5.903651193674598e+02	
94	3.400000000000000e+01	1.200000000000000e+01	-4.579396840439801e-03	-1.469292176235722e-02	-6.480620623456963e+02	-1.762150558644070e+01	1.663509185985173e+01	6.313178286185675e+02	
95	3.300000000000000e+01	1.200000000000000e+01	-4.512732055310362e-03	-1.547160423067334e-02	-6.901240690041444e+02	-1.877893689094528e+01	1.657071495172673e+01	6.721626594717490e+02	
96	3.200000000000000e+01	1.200000000000000e+01	-4.441909736331754e-03	-1.623885740335397e-02	-7.321008241875759e+02	-1.992975747079130e+01	1.652120714512175e+01	7.129371847579918e+02	
97	3.100000000000000e+01	1.200000000000000e+01	-4.366936811582499e-03	-1.699399206254475e-02	-7.740238052725225e+02	-2.107635351902494e+01	1.648301808059928e+01	7.536687764809334e+02	
98	3.000000000000000e+01	1.200000000000000e+01	-4.287817620803485e-03	-1.773631921650707e-02	-8.159151593316151e+02	-2.222043839984981e+01	1.645331799018111e+01	7.943765836972391e+02	
99	2.900000000000000e+01	1.200000000000000e+01	-4.204554712761919e-03	-1.846514962357150e-02	-8.577899319527321e+02	-2.336319484663121e+01	1.642997517504882e+01	8.350735033124598e+02	
100	2.800000000000000e+01	1.200000000000000e+01	-4.117149434317307e-03	-1.917979356561556e-02	-8.996580038814377e+02	-2.450540967581025e+01	1.641145417116592e+01	8.757678953106746e+02	
101	2.700000000000000e+01	1.200000000000000e+01	-4.025602348148162e-03	-1.987956076138610e-02	-9.415256284893703e+02	-2.564758624500529e+01	1.639668225353383e+01	9.164649436945554e+02	
102	2.600000000000000e+01	1.200000000000000e+01	-3.929913520824533e-03	-2.056376034596064e-02	-9.833965500588439e+02	-2.679002808127761e+01	1.638490915559531e+01	9.571676440844439e+02	
103	2.500000000000000e+01	1.200000000000000e+01	-3.830082721790447e-03	-2.123170086891531e-02	-1.025272719045923e+03	-2.793289360984861e+01	1.637556867874058e+01	9.978774295468693e+02	
104	2.400000000000000e+01	1.200000000000000e+01	-3.726109571579400e-03	-2.188269028246488e-02	-1.067154623636178e+03	-2.907622213232333e+01	1.636814159917565e+01	1.038594450161583e+03	
105	2.300000000000000e+01	1.200000000000000e+01	-3.617993676005536e-03	-2.251603590474952e-02	-1.109041240984934e+03	-3.021992979765171e+01	1.636201460578676e+01	1.079317508224381e+03	
106	2.200000000000000e+01	1.200000000000000e+01	-3.505734783873598e-03	-2.313104435489891e-02	-1.150929586468889e+03	-3.136377570103978e+01	1.635632654054596e+01	1.120043625182464e+03	
107	2.100000000000000e+01	1.200000000000000e+01	-3.389333009232204e-03	-2.372702146796931e-02	-1.192813809021938e+03	-3.250729167871827e+01	1.634979337771097e+01	1.160767193352365e+03	
108	2.000000000000000e+01	1.200000000000000e+01	-3.268789165764837e-03	-2.430327221228895e-02	-1.234683751534623e+03	-3.364967158469343e+01	1.634050442020527e+01	1.201478634658145e+03	
109	1.900000000000000e+01	1.200000000000000e+01	-3.144105270191054e-03	-2.485910065161048e-02	-1.276522869984243e+03	-3.478960832232889e+01	1.632568746887519e+01	1.242162471419444e+03	
110	1.800000000000000e+01	1.200000000000000e+01	-3.015285282888843e-03	-2.539381002345088e-02	-1.318305393748527e+03	-3.592507030032544e+01	1.630144656396823e+01	1.282794700101083e+03	
111	1.700000000000000e+01	1.200000000000000e+01	-2.882336165596051e-03	-2.590670304648341e-02	-1.359992612128867e+03	-3.705299933227008e+01	1.626248839806948e+01	1.323339371900496e+03	
112	1.600000000000000e+01	1.200000000000000e+01	-2.745269346254794e-03	-2.639708262912464e-02	-1.401528206931647e+03	-3.816891469291657e+01	1.620187053995252e+01	1.363744317007285e+03	
113	1.500000000000000e+01	1.200000000000000e+01	-2.604102686005136e-03	-2.686425323383220e-02	-1.442832618060209e+03	-3.926639652531473e+01	1.611082838672258e+01	1.403936028955367e+03	
114	1.400000000000000e+01	1.200000000000000e+01	-2.458863039401518e-03	-2.730752326627843e-02	-1.483796540713010e+03	-4.033641043044569e+01	1.597877164363885e+01	1.443813849597072e+03	
115	1.300000000000000e+01	1.200000000000000e+01	-2.309589480812215e-03	-2.772620901801144e-02	-1.524273810274497e+03	-4.136640753247022e+01	1.579359049436648e+01	1.483243781416231e+03	
116	1.200000000000000e+01	1.200000000000000e+01	-2.156337233042400e-03	-2.811964091984444e-02	-1.564074119699922e+03	-4.233907156507749e+01	1.554248780173140e+01	1.522052506462975e+03	
117	1.100000000000000e+01	1.200000000000000e+01	-1.999182274431608e-03	-2.848717320877777e-02	-1.602956226567602e+03	-4.323048596527277e+01	1.521368252114011e+01	1.560022503184137e+03	
118	1.000000000000000e+01	1.200000000000000e+01	-1.838226515588855e-03	-2.882819866825562e-02	-1.640622403301143e+03	-4.400715318151451e+01	1.479966221065888e+01	1.596889594468185e+03	
119	9.000000000000000e+00	1.200000000000000e+01	-1.673603337301603e-03	-2.914217112533797e-02	-1.676715233602181e+03	-4.462132260830967e+01	1.430307151737609e+01	1.632344585472870e+03	
120	8.000000000000000e+00	1.200000000000000e+01	-1.505483127615414e-03	-2.942864021461731e-02	-1.710815867809656e+03	-4.500008315856697e+01	1.374964504290756e+01	1.666042748355499e+03	
121	7.000000000000000e+00	1.200000000000000e+01	-1.334078514364421e-03	-2.968730787003182e-02	-1.742452429406781e+03	-4.503765278919806e+01	1.320959879937515e+01	1.697620363297248e+03	
122	6.000000000000000e+00	1.200000000000000e+01	-1.159647758446759e-03	-2.991812187738256e-02	-1.771076546010415e+03	-4.450559667984772e+01	1.289594714110428e+01	1.726763581062249e+03	
123	5.000000000000000e+00	1.200000000000000e+01	-9.824992909377391e-04	-3.012147254080654e-02	-1.796326263442146e+03	-4.332508765233111e+01	1.321011714335832e+01	1.753200259839200e+03	
124	4.000000000000000e+00	1.200000000000000e+01	-8.029588595032990e-04	-3.029850388758066e-02	-1.817701029278534e+03	-3.985437807421494e+01	1.665906929166172e+01	1.778158826864762e+03	
125	3.000000000000000e+00	1.200000000000000e+01	-6.213362795870224e-04	-3.045269323905064e-02	-1.847933878560184e+03	-4.491552102186918e+01	2.583342011766712e+01	1.803758481615559e+03	
126	2.000000000000000e+00	1.200000000000000e+01	-4.360600749951258e-04	-3.058998662163104e-02	-1.957985125674242e+03	-4.601658272556222e+01	1.196108972998961e+02	1.926875910959718e+03	
127	1.000000000000000e+00	1.200000000000000e+01	-2.324994967312745e-04	-3.075847937312391e-02	-2.355554566468138e+03	-5.837971347039240e+02	1.976525385047436e+02	1.815321046239810e+03	
128	1.000000000000000e+00	1.100000000000000e+01	-1.480405283058520e-04	-3.077076803491996e-02	-1.705979671277277e+03	-4.480703672496205e+02	1.229765441351572e+02	1.281728808597610e+03	
129	2.000000000000000e+00	1.100000000000000e+01	-3.142996180331144e-04	-3.064411724929987e-02	-1.696421996008335e+03	-8.299114703330262e+01	1.236008018968926e+02	1.632258477491391e+03	
130	3.000000000000000e+00	1.100000000000000e+01	-4.823449075334888e-04	-3.050363299026821e-02	-1.647308601534776e+03	-3.417810284874140e+01	6.974706057438161e+01	1.619150584604817e+03	
131	4.000000000000000e+00	1.100000000000000e+01	-6.417175985077753e-04	-3.034903948081250e-02	-1.570272387342878e+03	-1.048462790012558e+01	4.131316239117373e+01	1.561974700196671e+03	
132	5.000000000000000e+00	1.100000000000000e+01	-7.957858301413692e-04	-3.017101535889082e-02	-1.522038921544185e+03	-3.065279163364883e+00	3.319458595046426e+01	1.520423772634902e+03	
133	6.000000000000000e+00	1.100000000000000e+01	-9.459666802370165e-04	-2.996678357472447e-02	-1.485108795866355e+03	-3.039345858617217e-01	3.071434444840252e+01	1.486075018261785e+03	
134	7.000000000000000e+00	1.100000000000000e+01	-1.092825765996256e-03	-2.973505113970592e-02	-1.452452733757840e+03	6.977714503001522e-01	3.054728349441766e+01	1.454434232580568e+03	
135	8.000000000000000e+00	1.100000000000000e+01	-1.236548261464379e-03	-2.947543082526122e-02	-1.421074445156086e+03	1.009242049511816e+00	3.119163257412714e+01	1.423451328703172e+03	
136	9.000000000000000e+00	1.100000000000000e+01	-1.377164624695671e-03	-2.918796854511998e-02	-1.389770983729093e+03	1.024963834853718e+00	3.208509986910355e+01	1.392275541081843e+03	
137	1.000000000000000e+01	1.100000000000000e+01	-1.514643002964357e-03	-2.887296602532215e-02	-1.358073784398606e+03	9.171047086223059e-01	3.297776639298718e+01	1.360590448658793e+03	
138	1.100000000000000e+01	1.100000000000000e+01	-1.648930348483258e-03	-2.853087898217947e-02	-1.325840397107122e+03	7.660003081984801e-01	3.376722959127166e+01	1.328324296563280e+03	
139	1.200000000000000e+01	1.100000000000000e+01	-1.779971010491547e-03	-2.816225960756695e-02	-1.293074153638969e+03	6.107907610009171e-01	3.441896843976896e+01	1.295515108719688e+03	
140	1.300000000000000e+01	1.100000000000000e+01	-1.907714827827229e-03	-2.776772076701266e-02	-1.259839719550292e+03	4.699904419455674e-01	3.493179372719038e+01	1.262244622073199e+03	
141	1.400000000000000e+01	1.100000000000000e+01	-2.032120068445802e-03	-2.734791313170318e-02	-1.226221673184142e+03	3.511637707946953e-01	3.531998961821063e+01	1.228605278770283e+03	
142	1.500000000000000e+01	1.100000000000000e+01	-2.153153819869925e-03	-2.690351030703253e-02	-1.192304262971135e+03	2.559281668747460e-01	3.560388714876949e+01	1.194684207900789e+03	
143	1.600000000000000e+01	1.100000000000000e+01	-2.270791181058543e-03	-2.643519918660009e-02	-1.158162189919066e+03	1.827702367769959e-01	3.580477520634228e+01	1.160556321092927e+03	
144	1.700000000000000e+01	1.100000000000000e+01	-2.385013978516031e-03	-2.594367379244846e-02	-1.123857278208588e+03	1.287059230150742e-01	3.594227820106247e+01	1.126282327826118e+03	
145	1.800000000000000e+01	1.100000000000000e+01	-2.495809391785571e-03	-2.542963145625806e-02	-1.089438248000125e+03	9.026640770631111e-02	3.603317661387829e+01	1.091909310783310e+03	
146	1.900000000000000e+01	1.100000000000000e+01	-2.603168682970368e-03	-2.489377055807998e-02	-1.054942010367455e+03	6.406414445744524e-02	3.609107334426082e+01	1.057472495887055e+03	
147	2.000000000000000e+01	1.100000000000000e+01	-2.707086114827301e-03	-2.433678927970156e-02	-1.020395577981268e+03	4.708909014087048e-02	3.612653444606310e+01	1.022997430468005e+03	
148	2.100000000000000e+01	1.100000000000000e+01	-2.807558079840078e-03	-2.375938499668121e-02	-9.858180811846872e+02	3.683457418912006e-02	3.614746980348896e+01	9.885021361730675e+02	
149	2.200000000000000e+01	1.100000000000000e+01	-2.904582428741729e-03	-2.316225405236284e-02	-9.512226183540924e+02	3.132011672462909e-02	3.615960768253368e+01	9.539990169634663e+02	
150	2.300000000000000e+01	1.100000000000000e+01	-2.998157970751448e-03	-2.254609174241861e-02	-9.166178153711548e+02	2.905915819570382e-02	3.616697855869654e+01	9.194964349776935e+02	
151	2.400000000000000e+01	1.100000000000000e+01	-3.088284111824160e-03	-2.191159239893643e-02	-8.820090529748854e+02	2.900274161566863e-02	3.617236383794421e+01	8.849999386184406e+02	
152	2.500000000000000e+01	1.100000000000000e+01	-3.174960596849204e-03	-2.125944950519139e-02	-8.473993665039478e+02	3.048030930102197e-02	3.617769371418211e+01	8.505131670702312e+02	
153	2.600000000000000e+01	1.100000000000000e+01	-3.258187324134367e-03	-2.059035580086514e-02	-8.127900405392314e+02	3.315002089291674e-02	3.618439415395646e+01	8.160384676187119e+02	
154	2.700000000000000e+01	1.100000000000000e+01	-3.337964203478475e-03	-1.990500335707975e-02	-7.781809265960360e+02	3.696505920627136e-02	3.619369476575758e+01	7.815772649300372e+02	
155	2.800000000000000e+01	1.100000000000000e+01	-3.414291032147536e-03	-1.920408361419600e-02	-7.435705079685973e+02	4.215672174237017e-02	3.620691120044607e+01	7.471302140608259e+02	
156	2.900000000000000e+01	1.100000000000000e+01	-3.487167364772488e-03	-1.848828738628973e-02	-7.089557271029770e+02	4.923263132772959e-02	3.622571779074131e+01	7.126971611039719e+02	
157	3.000000000000000e+01	1.100000000000000e+01	-3.556592354655540e-03	-1.775830484702033e-02	-6.743315885564696e+02	5.898174124476263e-02	3.625241867248148e+01	6.782769292441665e+02	
158	3.100000000000000e+01	1.100000000000000e+01	-3.622564544461982e-03	-1.701482552502035e-02	-6.396905530480351e+02	7.247199349748135e-02	3.629021591819802e+01	6.438669484418737e+02	
159	3.200000000000000e+01	1.100000000000000e+01	-3.685081585988442e-03	-1.625853835577122e-02	-6.050217548970444e+02	9.101691781731969e-02	3.634345361339587e+01	6.094627577593737e+02	
160	3.300000000000000e+01	1.100000000000000e+01	-3.744139872079695e-03	-1.549013186366974e-02	-5.703101156501133e+02	1.160735583624435e-01	3.641778616690517e+01	5.750574388112004e+02	
161	3.400000000000000e+01	1.100000000000000e+01	-3.799734072610608e-03	-1.471029458569614e-02	-5.355355019710934e+02	1.490146574819278e-01	3.652017186854289e+01	5.406410945986459e+02	
162	3.500000000000000e+01	1.100000000000000e+01	-3.851856583727466e-03	-1.391971589825198e-02	-5.006721953512915e+02	1.906954738133075e-01	3.665852701115897e+01	5.062005786407127e+02	
163	3.600000000000000e+01	1.100000000000000e+01	-3.900496931077046e-03	-1.311908747093142e-02	-4.656891247428923e+02	2.407119328975105e-01	3.684078699119670e+01	4.717198183765985e+02	
164	3.700000000000000e+01	1.100000000000000e+01	-3.945641220016669e-03	-1.230910564007275e-02	-4.305515601607625e+02	2.962365502852693e-01	3.707301973374549e+01	4.371812657233600e+02	
165	3.800000000000000e+01	1.100000000000000e+01	-3.987271806706134e-03	-1.149047505576312e-02	-3.952252759967978e+02	3.503454072594168e-01	3.735614720265432e+01	4.025692476885332e+02	
166	3.900000000000000e+01	1.100000000000000e+01	-4.025367479410657e-03	-1.066391397778226e-02	-3.596845073460204e+02	3.898625777981801e-01	3.768081608481823e+01	3.678762393513700e+02	
167	4.000000000000000e+01	1.100000000000000e+01	-4.059904590629585e-03	-9.830161524956652e-03	-3.239252397636027e+02	3.930077111856416e-01	3.802012882252887e+01	3.331132636624438e+02	
168	4.100000000000000e+01	1.100000000000000e+01	-4.090859754959590e-03	-8.989986937623587e-03	-2.879852725191063e+02	3.275917162055790e-01	3.832046314275608e+01	2.983255591890690e+02	
169	4.200000000000000e+01	1.100000000000000e+01	-4.118214886638519e-03	-8.144200399004455e-03	-2.519717433144296e+02	1.511017791681218e-01	3.849161252256557e+01	2.636140094085282e+02	
170	4.300000000000000e+01	1.100000000000000e+01	-4.141965410323196e-03	-7.293664114507012e-03	-2.160950376594421e+02	-1.856575820159735e-01	3.839889916981613e+01	2.291609963218725e+02	
171	4.400000000000000e+01	1.100000000000000e+01	-4.162132304426911e-03	-6.439301227837113e-03	-1.807050690216404e+02	-7.304577842536151e-01	3.786108122335954e+01	1.952554905134702e+02	
172	4.500000000000000e+01	1.100000000000000e+01	-4.178778062335456e-03	-5.582099043617152e-03	-1.463224053859886e+02	-1.518890431193017e+00	3.665748424497619e+01	1.623057070713979e+02	
173	4.600000000000000e+01	1.100000000000000e+01	-4.192025617158173e-03	-4.723102367461432e-03	-1.136538319782611e+02	-2.566379764389627e+00	3.454460863364253e+01	1.308195015354183e+02	
174	4.700000000000000e+01	1.100000000000000e+01	-4.202077908479505e-03	-3.863392677595694e-03	-8.358008661844052e+01	-3.867604782349866e+00	3.127865272337905e+01	1.013286545120780e+02	
175	4.800000000000000e+01	1.100000000000000e+01	-4.209234407651025e-03	-3.004047950886870e-03	-5.709810995917401e+01	-5.392023483737091e+00	2.664534404126801e+01	7.425238592069287e+01	
176	4.900000000000000e+01	1.100000000000000e+01	-4.213899432098700e-03	-2.146072193667221e-03	-3.518253053990468e+01	-7.019865856401850e+00	2.053402964986368e+01	4.979679886018117e+01	
177	5.000000000000000e+01	1.100000000000000e+01	-4.216574850804853e-03	-1.290265325781345e-03	-1.855040885161228e+01	-8.283018986213872e+00	1.318193165532085e+01	2.829262418564749e+01	
178	5.100000000000000e+01	1.100000000000000e+01	-4.217836938539029e-03	-4.369714785597814e-04	-7.768042663423145e+00	-7.654229641014622e+00	5.878187725269850e+00	1.175692634739719e+01	
179	1.000000000000000e+00	1.000000000000000e+01	-1.117604385911818e-04	-3.077122692444253e-02	-1.284992655240082e+03	-3.957261584809033e+02	1.263549904884231e+02	9.244767367238937e+02	
180	2.000000000000000e+00	1.000000000000000e+01	-2.332461357483749e-04	-3.067516327308555e-02	-1.303528916197031e+03	-1.646517251121277e+02	1.522708543661160e+02	1.178892237963668e+03	
181	3.000000000000000e+00	1.000000000000000e+01	-3.625847412562585e-04	-3.054468056640851e-02	-1.310526668869460e+03	-5.780131305878727e+01	1.178705512655300e+02	1.274713569596533e+03	
182	4.000000000000000e+00	1.000000000000000e+01	-4.918891639619693e-04	-3.039060090718323e-02	-1.282139913725482e+03	-2.415275614740820e+01	8.622097686477707e+01	1.269751123660628e+03	
183	5.000000000000000e+00	1.000000000000000e+01	-6.175782115552675e-04	-3.021215010314637e-02	-1.241783720738951e+03	-8.884055706838694e+00	6.967137783078732e+01	1.240748962357679e+03	
184	6.000000000000000e+00	1.000000000000000e+01	-7.397374858861305e-04	-3.000712462752771e-02	-1.206143439698287e+03	-2.352741947714438e+00	6.297542452959455e+01	1.210361789040592e+03	
185	7.000000000000000e+00	1.000000000000000e+01	-8.587015536617041e-04	-2.977453853594725e-02	-1.174525997852453e+03	4.775806943755985e-01	6.079778726040473e+01	1.181278499483039e+03	
186	8.000000000000000e+00	1.000000000000000e+01	-9.747197027832317e-04	-2.951403581541577e-02	-1.145355150360806e+03	1.587402843171045e+00	6.071524547864284e+01	1.153352758042475e+03	
187	9.000000000000000e+00	1.000000000000000e+01	-1.087930088237923e-03	-2.922567556465735e-02	-1.117447255538309e+03	1.887157247262445e+00	6.150553215408645e+01	1.126073376644812e+03	
188	1.000000000000000e+01	1.000000000000000e+01	-1.198399842318796e-03	-2.890976232653196e-02	-1.090116252215905e+03	1.808954182902541e+00	6.258067812469820e+01	1.099075075446289e+03	
189	1.100000000000000e+01	1.000000000000000e+01	-1.306155748020711e-03	-2.856675413508411e-02	-1.062990693916910e+03	1.570421798888100e+00	6.365704668471309e+01	1.072147026981161e+03	
190	1.200000000000000e+01	1.000000000000000e+01	-1.411203602523007e-03	-2.819720533140524e-02	-1.035883410072987e+03	1.283380731597772e+00	6.460885985409189e+01	1.045185232881935e+03	
191	1.300000000000000e+01	1.000000000000000e+01	-1.513539352275415e-03	-2.780173084661440e-02	-1.008710015870642e+03	1.004338090150497e+00	6.539221227539740e+01	1.018149125766723e+03	
192	1.400000000000000e+01	1.000000000000000e+01	-1.613155193400727e-03	-2.738098315488349e-02	-9.814414130558545e+02	7.595048453033559e-01	6.600515984632916e+01	9.910324755684018e+02	
193	1.500000000000000e+01	1.000000000000000e+01	-1.710042711180327e-03	-2.693563731981654e-02	-9.540765219722794e+02	5.582425967496967e-01	6.646568790341364e+01	9.638455708243210e+02	
194	1.600000000000000e+01	1.000000000000000e+01	-1.804194335618195e-03	-2.646638133847014e-02	-9.266269424751437e+02	4.007373814921582e-01	6.679947325849250e+01	9.366050382796504e+02	
195	1.700000000000000e+01	1.000000000000000e+01	-1.895603874625552e-03	-2.597391002105298e-02	-8.991085974434700e+02	2.825452250657179e-01	6.703322173036547e+01	9.093284548351184e+02	
196	1.800000000000000e+01	1.000000000000000e+01	-1.984266571604603e-03	-2.545892123260118e-02	-8.715374413575252e+02	1.973028567982560e-01	6.719128875959974e+01	8.820318256225880e+02	
197	1.900000000000000e+01	1.000000000000000e+01	-2.070178943173735e-03	-2.492211369538246e-02	-8.439274952815176e+02	1.383034105840490e-01	6.729423729202701e+01	8.547286879546036e+02	
198	2.000000000000000e+01	1.000000000000000e+01	-2.153338538301285e-03	-2.436418579903788e-02	-8.162901699190990e+02	9.935186307178867e-02	6.735851123630681e+01	8.274300740362343e+02	
199	2.100000000000000e+01	1.000000000000000e+01	-2.233743691828093e-03	-2.378583503854630e-02	-7.886342577768758e+02	7.516786680848320e-02	6.739671112322867e+01	8.001448773691562e+02	
200	2.200000000000000e+01	1.000000000000000e+01	-2.311393306009289e-03	-2.318775782273283e-02	-7.609662329519022e+02	6.151480277516796e-02	6.741815603815203e+01	7.728803684315543e+02	
201	2.300000000000000e+01	1.000000000000000e+01	-2.386286671543346e-03	-2.257064948321104e-02	-7.332906523014068e+02	5.517696998177790e-02	6.742954373860839e+01	7.456427286475262e+02	
202	2.400000000000000e+01	1.000000000000000e+01	-2.458423327822433e-03	-2.193520437474146e-02	-7.056105474654307e+02	5.386566664468440e-02	6.743560707443282e+01	7.184375466016691e+02	
203	2.500000000000000e+01	1.000000000000000e+01	-2.527802956523956e-03	-2.128211600007459e-02	-6.779277508308739e+02	5.610684683000677e-02	6.743971915137337e+01	6.912702612932264e+02	
204	2.600000000000000e+01	1.000000000000000e+01	-2.594425300206481e-03	-2.061207712076918e-02	-6.502431323721846e+02	6.114143146675755e-02	6.744443574466844e+01	6.641465622729378e+02	
205	2.700000000000000e+01	1.000000000000000e+01	-2.658290097148880e-03	-1.992577983441427e-02	-6.225567393886349e+02	6.885468445026977e-02	6.745198302091413e+01	6.370727669965785e+02	
206	2.800000000000000e+01	1.000000000000000e+01	-2.719397023573945e-03	-1.922391561185488e-02	-5.948678412329151e+02	7.973935728189296e-02	6.746470741524033e+01	6.100562028507086e+02	
207	2.900000000000000e+01	1.000000000000000e+01	-2.777745635128964e-03	-1.850717529827650e-02	-5.671748858895648e+02	9.488693053227415e-02	6.748550586930909e+01	5.831056243641549e+02	
208	3.000000000000000e+01	1.000000000000000e+01	-2.833335299709644e-03	-1.777624909224534e-02	-5.394753785862515e+02	1.159905517831765e-01	6.751824537718390e+01	5.562316958637948e+02	
209	3.100000000000000e+01	1.000000000000000e+01	-2.886165114729351e-03	-1.703182652946641e-02	-5.117657020163259e+02	1.453280824070218e-01	6.756816398941763e+01	5.294475704697768e+02	
210	3.200000000000000e+01	1.000000000000000e+01	-2.936233802738081e-03	-1.627459651598456e-02	-4.840409081054261e+02	1.856733696761799e-01	6.764221383799563e+01	5.027695879612095e+02	
211	3.300000000000000e+01	1.000000000000000e+01	-2.983539581408653e-03	-1.550524748142432e-02	-4.562945338980635e+02	2.400534970800825e-01	6.774925805912645e+01	4.762180985203128e+02	
212	3.400000000000000e+01	1.000000000000000e+01	-3.028080007360895e-03	-1.472446775948636e-02	-4.285185248083753e+02	3.112304546083493e-01	6.789996062980937e+01	4.498183829202950e+02	
213	3.500000000000000e+01	1.000000000000000e+01	-3.069851799237456e-03	-1.393294635241559e-02	-4.007033973133217e+02	4.007352447309911e-01	6.810610484700999e+01	4.236015713201210e+02	
214	3.600000000000000e+01	1.000000000000000e+01	-3.108850655501857e-03	-1.313137429877416e-02	-3.728388415607835e+02	5.072328676097162e-01	6.837894121207913e+01	3.976053441494860e+02	
215	3.700000000000000e+01	1.000000000000000e+01	-3.145071099382340e-03	-1.232044693621063e-02	-3.449150616974561e+02	6.239681054820005e-01	6.872600597426664e+01	3.718740064939407e+02	
216	3.800000000000000e+01	1.000000000000000e+01	-3.178506410935679e-03	-1.150086742156021e-02	-3.169252912857881e+02	7.350867195500268e-01	6.914570276691501e+01	3.464572536389109e+02	
217	3.900000000000000e+01	1.000000000000000e+01	-3.209148754253245e-03	-1.067335191459880e-02	-2.888701331799990e+02	8.108349789397333e-01	6.961887698367862e+01	3.214066200988623e+02	
218	4.000000000000000e+01	1.000000000000000e+01	-3.236989689968657e-03	-9.838636803174639e-03	-2.607646669989448e+02	8.021530167139841e-01	7.009679613553556e+01	2.967683349802862e+02	
219	4.100000000000000e+01	1.000000000000000e+01	-3.262021401251606e-03	-8.997488169593502e-03	-2.326496180102403e+02	6.361521011772967e-01	7.048563534709928e+01	2.725713662467394e+02	
220	4.200000000000000e+01	1.000000000000000e+01	-3.284239172026594e-03	-8.150713261834969e-03	-2.046080435907539e+02	2.153933691773749e-01	7.062912380715706e+01	2.488102346109296e+02	
221	4.300000000000000e+01	1.000000000000000e+01	-3.303645912407485e-03	-7.299172901490150e-03	-1.767881007797029e+02	-5.746627506555977e-01	7.029368470961779e+01	2.254240097732216e+02	
222	4.400000000000000e+01	1.000000000000000e+01	-3.320259644608736e-03	-6.443792455865360e-03	-1.494292601479336e+02	-1.846139352263874e+00	6.916388485700607e+01	2.022754295950005e+02	
223	4.500000000000000e+01	1.000000000000000e+01	-3.334124450467099e-03	-5.585567352463734e-03	-1.228825851121450e+02	-3.678147518216086e+00	6.685798010619006e+01	1.791358589384150e+02	
224	4.600000000000000e+01	1.000000000000000e+01	-3.345323856166094e-03	-4.725557728158830e-03	-9.760794146308707e+01	-6.086675676855345e+00	6.297026321281222e+01	1.556828773098618e+02	
225	4.700000000000000e+01	1.000000000000000e+01	-3.353993032815599e-03	-3.864866600606406e-03	-7.412962504839561e+01	-9.012937672150885e+00	5.713617343921574e+01	1.315232003714940e+02	
226	4.800000000000000e+01	1.000000000000000e+01	-3.360324008349297e-03	-3.004597256920271e-03	-5.295116454966114e+01	-1.232674802416775e+01	4.910769822346970e+01	1.062854990921445e+02	
227	4.900000000000000e+01	1.000000000000000e+01	-3.364560630446449e-03	-2.145786272932001e-03	-3.449149937036828e+01	-1.576197366901368e+01	3.884136528754476e+01	7.990870892837432e+01	
228	5.000000000000000e+01	1.000000000000000e+01	-3.366994893976230e-03	-1.289305818772721e-03	-1.924725976898290e+01	-1.855109800562620e+01	2.664321832904771e+01	5.329098397400798e+01	
229	5.100000000000000e+01	1.000000000000000e+01	-3.368016276153770e-03	-4.357318477454005e-04	-8.620260543488483e+00	-1.832683953814802e+01	1.334851559869944e+01	2.840685041560318e+01	
230	1.000000000000000e+00	9.000000000000000e+00	-8.078239250479944e-05	-3.076872494887674e-02	-9.294068137011125e+02	-3.152613186454365e+02	9.038860398010354e+01	6.401992564936868e+02	
231	2.000000000000000e+00	9.000000000000000e+00	-1.669611133122755e-04	-3.068939103785783e-02	-9.489397070545469e+02	-1.908912837857839e+02	1.346433971939464e+02	8.044580720285956e+02	
232	3.000000000000000e+00	9.000000000000000e+00	-2.591161390584659e-04	-3.057068830796366e-02	-9.631745224624322e+02	-9.215475889508761e+01	1.331181596960751e+02	9.108003108741188e+02	
233	4.000000000000000e+00	9.000000000000000e+00	-3.540724587752773e-04	-3.042111333252045e-02	-9.596905516984299e+02	-4.118936930252978e+01	1.152218507064747e+02	9.469681734797464e+02	
234	5.000000000000000e+00	9.000000000000000e+00	-4.485969952597652e-04	-3.024371204540153e-02	-9.406583340946781e+02	-1.766617563568431e+01	1.002227505413841e+02	9.445067090715207e+02	
235	6.000000000000000e+00	9.000000000000000e+00	-5.411680530092956e-04	-3.003863672842506e-02	-9.158016085208707e+02	-6.129965865791766e+00	9.158658170084533e+01	9.279304420275110e+02	
236	7.000000000000000e+00	9.000000000000000e+00	-6.314245191690327e-04	-2.980556021207162e-02	-8.908006304300104e+02	-6.510402009261647e-01	8.761930736960504e+01	9.072347353803887e+02	
237	8.000000000000000e+00	9.000000000000000e+00	-7.193365168503829e-04	-2.954439693162248e-02	-8.668326497163230e+02	1.788304900212298e+00	8.630868228063017e+01	8.856066380436723e+02	
238	9.000000000000000e+00	9.000000000000000e+00	-8.049594333226331e-04	-2.925530402484020e-02	-8.439088183213871e+02	2.671244606611083e+00	8.637084233535168e+01	8.640240115703070e+02	
239	1.000000000000000e+01	9.000000000000000e+00	-8.883545692647298e-04	-2.893862862821737e-02	-8.217660349002666e+02	2.773416307028672e+00	8.705089821406534e+01	8.427198479427965e+02	
240	1.100000000000000e+01	9.000000000000000e+00	-9.695711598695117e-04	-2.859484784340155e-02	-8.001530571055262e+02	2.509254625811307e+00	8.793524863357277e+01	8.217038508385413e+02	
241	1.200000000000000e+01	9.000000000000000e+00	-1.048645034972739e-03	-2.822452513504851e-02	-7.788826387397158e+02	2.102962910600764e+00	8.881039589595329e+01	8.009292451033931e+02	
242	1.300000000000000e+01	9.000000000000000e+00	-1.125601333100954e-03	-2.782827973783518e-02	-7.578274140789338e+02	1.673579978562175e+00	8.957816128132016e+01	7.803452747909053e+02	
243	1.400000000000000e+01	9.000000000000000e+00	-1.200457447749184e-03	-2.740676594208900e-02	-7.369042944635295e+02	1.280409585425279e+00	9.020462841059772e+01	7.599106245070001e+02	
244	1.500000000000000e+01	9.000000000000000e+00	-1.273225350189006e-03	-2.696065927614930e-02	-7.160603632262225e+02	9.485558711976037e-01	9.068988496403350e+01	7.395947613419185e+02	
245	1.600000000000000e+01	9.000000000000000e+00	-1.343913249337773e-03	-2.649064747553020e-02	-6.952624886475019e+02	6.839423217191953e-01	9.105021302396536e+01	7.193761185538722e+02	
246	1.700000000000000e+01	9.000000000000000e+00	-1.412526739906933e-03	-2.599742473169685e-02	-6.744902544260531e+02	4.823656159683960e-01	9.130787266950341e+01	6.992399790144383e+02	
247	1.800000000000000e+01	9.000000000000000e+00	-1.479069592574743e-03	-2.548168815868992e-02	-6.537313136779413e+02	3.349644853844662e-01	9.148552741271911e+01	6.791767834182486e+02	
248	1.900000000000000e+01	9.000000000000000e+00	-1.543544301619815e-03	-2.494413572975875e-02	-6.329783873207031e+02	2.314434871159481e-01	9.160348794628803e+01	6.591809204212221e+02	
249	2.000000000000000e+01	9.000000000000000e+00	-1.605952468429594e-03	-2.438546516173967e-02	-6.122273400773498e+02	1.618689872528805e-01	9.167862434849027e+01	6.392498916922052e+02	
250	2.100000000000000e+01	9.000000000000000e+00	-1.666295072154272e-03	-2.380637338759069e-02	-5.914759522823680e+02	1.175651482435960e-01	9.172422073343904e+01	6.193837425558971e+02	
251	2.200000000000000e+01	9.000000000000000e+00	-1.724572661279891e-03	-2.320755637448417e-02	-5.707231393686025e+02	9.146272708611747e-02	9.175031945018219e+01	5.995846849632678e+02	
252	2.300000000000000e+01	9.000000000000000e+00	-1.780785489006134e-03	-2.258970912804059e-02	-5.499684598344179e+02	7.813824721531049e-02	9.176428242863629e+01	5.798568738747069e+02	
253	2.400000000000000e+01	9.000000000000000e+00	-1.834933608626555e-03	-2.195352578125529e-02	-5.292118100912666e+02	7.370065144698756e-02	9.177141537270226e+01	5.602063214568464e+02	
254	2.500000000000000e+01	9.000000000000000e+00	-1.887016940924350e-03	-2.129969970641542e-02	-5.084532420687705e+02	7.562681230563051e-02	9.177557653323200e+01	5.406409495011409e+02	
255	2.600000000000000e+01	9.000000000000000e+00	-1.937035323120375e-03	-2.062892361457705e-02	-4.876928637452082e+02	8.260556382301765e-02	9.177974047177531e+01	5.211707891890252e+02	
256	2.700000000000000e+01	9.000000000000000e+00	-1.984988546887864e-03	-1.994188962485159e-02	-4.669307987555526e+02	9.442303788754369e-02	9.178651361799167e+01	5.018083440117304e+02	
257	2.800000000000000e+01	9.000000000000000e+00	-2.030876392213628e-03	-1.923928929747730e-02	-4.461671926031012e+02	1.118990596863743e-01	9.179861322523095e+01	4.825691341307118e+02	
258	2.900000000000000e+01	9.000000000000000e+00	-2.074698662743359e-03	-1.852181363390714e-02	-4.254022609860893e+02	1.368666033748749e-01	9.181932231361665e+01	4.634724381342752e+02	
259	3.000000000000000e+01	9.000000000000000e+00	-2.116455227926093e-03	-1.779015305598193e-02	-4.046363823637206e+02	1.721657197710451e-01	9.185292663154456e+01	4.445422377284122e+02	
260	3.100000000000000e+01	9.000000000000000e+00	-2.156146076356804e-03	-1.704499738719697e-02	-3.838702392335611e+02	2.215991573422746e-01	9.190512042260916e+01	4.258083429878764e+02	
261	3.200000000000000e+01	9.000000000000000e+00	-2.193771383286721e-03	-1.628703587446509e-02	-3.631050118334704e+02	2.897610690417673e-01	9.198333599972113e+01	4.073076200851376e+02	
262	3.300000000000000e+01	9.000000000000000e+00	-2.229331592155825e-03	-1.551695731089373e-02	-3.423426218790995e+02	3.816009704564580e-01	9.209690150010191e+01	3.890851449124086e+02	
263	3.400000000000000e+01	9.000000000000000e+00	-2.262827504352127e-03	-1.473545035168975e-02	-3.215860081098718e+02	5.015188203303715e-01	9.225685604825919e+01	3.711949419855430e+02	
264	3.500000000000000e+01	9.000000000000000e+00	-2.294260361177304e-03	-1.394320415844165e-02	-3.008393884137749e+02	6.517034508650550e-01	9.247514559841770e+01	3.536997154190642e+02	
265	3.600000000000000e+01	9.000000000000000e+00	-2.323631885955306e-03	-1.314090956334839e-02	-2.801084300342448e+02	8.293389930119890e-01	9.276277831797950e+01	3.366686237698647e+02	
266	3.700000000000000e+01	9.000000000000000e+00	-2.350944232060306e-03	-1.232926101424586e-02	-2.594002189559626e+02	1.022242681667882e+00	9.312633499272840e+01	3.201716970659877e+02	
267	3.800000000000000e+01	9.000000000000000e+00	-2.376199757075875e-03	-1.150895963937050e-02	-2.387229423709097e+02	1.202534345458400e+00	9.356202201178968e+01	3.042690293626924e+02	
268	3.900000000000000e+01	9.000000000000000e+00	-2.399400527790449e-03	-1.068071784690242e-02	-2.180853653038941e+02	1.318209145718878e+00	9.404626026109933e+01	2.889926032922998e+02	
269	4.000000000000000e+01	9.000000000000000e+00	-2.420547485236648e-03	-9.845265923288557e-03	-1.974966592172553e+02	1.283218756567783e+00	9.452174406469177e+01	2.743189389951273e+02	
270	4.100000000000000e+01	9.000000000000000e+00	-2.439639322665918e-03	-9.003361065059962e-03	-1.769681405965190e+02	9.681710777481909e-01	9.487825827484014e+01	2.601324020288727e+02	
271	4.200000000000000e+01	9.000000000000000e+00	-2.456671444554263e-03	-8.155799059754805e-03	-1.565199968896944e+02	1.963613438510352e-01	9.492887136119771e+01	2.461828170478765e+02	
272	4.300000000000000e+01	9.000000000000000e+00	-2.471635958228633e-03	-7.303428220598100e-03	-1.361975835506556e+02	-1.246779454545961e+00	9.438558648767005e+01	2.320480020872241e+02	
273	4.400000000000000e+01	9.000000000000000e+00	-2.484524467814886e-03	-6.447163772535372e-03	-1.160998733779236e+02	-3.579638444582589e+00	9.284512710947301e+01	2.171213342381422e+02	
274	4.500000000000000e+01	9.000000000000000e+00	-2.495335808001156e-03	-5.587998395852147e-03	-9.641402429208544e+01	-6.959507268434523e+00	8.980496827503987e+01	2.006535320483004e+02	
275	4.600000000000000e+01	9.000000000000000e+00	-2.504089652328156e-03	-4.727001396345255e-03	-7.743259236717813e+01	-1.139953828344442e+01	8.473215585999512e+01	1.818750042703926e+02	
276	4.700000000000000e+01	9.000000000000000e+00	-2.510842668412081e-03	-3.865297511822155e-03	-5.952197454969531e+01	-1.671404621945774e+01	7.718937138329818e+01	1.602039791831704e+02	
277	4.800000000000000e+01	9.000000000000000e+00	-2.515699078705446e-03	-3.004020911989908e-03	-4.304266338128712e+01	-2.253842538593820e+01	6.696952308904764e+01	1.354994164816508e+02	
278	4.900000000000000e+01	9.000000000000000e+00	-2.518809645382678e-03	-2.144253763220051e-03	-2.832216417142286e+01	-2.835832275408841e+01	5.413429113070368e+01	1.082685882993689e+02	
279	5.000000000000000e+01	9.000000000000000e+00	-2.520375047471802e-03	-1.286978884117886e-03	-1.589741586240139e+01	-3.322832417511968e+01	3.883555520568117e+01	7.958116470294894e+01	
280	5.100000000000000e+01	9.000000000000000e+00	-2.520710240216269e-03	-4.330973690686922e-04	-7.167506953046078e+00	-3.466153931897100e+01	2.081705047958013e+01	4.989308748129420e+01	
281	1.000000000000000e+00	8.000000000000000e+00	-5.106576794583004e-05	-3.076393988646587e-02	-5.995173298172717e+02	-2.443681757823578e+02	6.741556214243292e+01	3.798820260128609e+02	
282	2.000000000000000e+00	8.000000000000000e+00	-1.052396715340050e-04	-3.069391475438947e-02	-6.149517583518093e+02	-1.750480581896986e+02	1.116759107861075e+02	4.933571744851216e+02	
283	3.000000000000000e+00	8.000000000000000e+00	-1.635545343341883e-04	-3.058402469471743e-02	-6.295463295620639e+02	-1.048689065269603e+02	1.276500707081131e+02	5.834934108024720e+02	
284	4.000000000000000e+00	8.000000000000000e+00	-2.248634143393273e-04	-3.043991994011607e-02	-6.350395048304438e+02	-5.527669703773279e+01	1.257721229237849e+02	6.319805542251364e+02	
285	5.000000000000000e+00	8.000000000000000e+00	-2.872599474033009e-04	-3.026502171944234e-02	-6.297899919762843e+02	-2.642325499821506e+01	1.184159614563496e+02	6.481826740989683e+02	
286	6.000000000000000e+00	8.000000000000000e+00	-3.492594500182164e-04	-3.006080046168044e-02	-6.171702192594594e+02	-1.083532959699548e+01	1.120490322179707e+02	6.464224167724442e+02	
287	7.000000000000000e+00	8.000000000000000e+00	-4.100781473299288e-04	-2.982779688343424e-02	-6.012914260937856e+02	-2.680069781397069e+00	1.081342936118364e+02	6.364806813453812e+02	
288	8.000000000000000e+00	8.000000000000000e+00	-4.694034345778915e-04	-2.956632922278192e-02	-5.846123782612212e+02	1.299525446163422e+00	1.062575568312550e+02	6.232619292408299e+02	
289	9.000000000000000e+00	8.000000000000000e+00	-5.271386274631997e-04	-2.927675400529279e-02	-5.681062991966389e+02	2.980329877944506e+00	1.056820045770957e+02	6.089455495144898e+02	
290	1.000000000000000e+01	8.000000000000000e+00	-5.832783075259388e-04	-2.895951525397136e-02	-5.520776359231012e+02	3.427742366907673e+00	1.058228954574384e+02	5.944578758172100e+02	
291	1.100000000000000e+01	8.000000000000000e+00	-6.378505262325305e-04	-2.861513895484067e-02	-5.365553023616089e+02	3.252474642779410e+00	1.062940602219905e+02	5.801604476938461e+02	
292	1.200000000000000e+01	8.000000000000000e+00	-6.908922030990652e-04	-2.824421319002626e-02	-5.214738294970425e+02	2.802264570511422e+00	1.068671696172749e+02	5.661694009558978e+02	
293	1.300000000000000e+01	8.000000000000000e+00	-7.424390643318759e-04	-2.784736918494813e-02	-5.067454208378278e+02	2.270466494966040e+00	1.074201382773865e+02	5.524975275848054e+02	
294	1.400000000000000e+01	8.000000000000000e+00	-7.925219703886158e-04	-2.742526641049326e-02	-4.922868987995967e+02	1.758690840537657e+00	1.078969524207916e+02	5.391178479791281e+02	
295	1.500000000000000e+01	8.000000000000000e+00	-8.411660050104058e-04	-2.697858189042471e-02	-4.780281239773286e+02	1.314261066402114e+00	1.082799227840328e+02	5.259917193377446e+02	
296	1.600000000000000e+01	8.000000000000000e+00	-8.883907361795072e-04	-2.650800292657673e-02	-4.639132510206714e+02	9.531518449817291e-01	1.085717913728764e+02	5.130809955951529e+02	
297	1.700000000000000e+01	8.000000000000000e+00	-9.342109342000539e-04	-2.601422236589553e-02	-4.498993908541960e+02	6.741919132792500e-01	1.087847580796319e+02	5.003529232948429e+02	
298	1.800000000000000e+01	8.000000000000000e+00	-9.786374183165679e-04	-2.549793565781129e-02	-4.359545075580945e+02	4.677992466768455e-01	1.089341179883762e+02	4.877817115518168e+02	
299	1.900000000000000e+01	8.000000000000000e+00	-1.021677878895387e-03	-2.495983912193357e-02	-4.220552609544538e+02	3.212117086842881e-01	1.090348490243596e+02	4.753485856362825e+02	
300	2.000000000000000e+01	8.000000000000000e+00	-1.063337606779230e-03	-2.440062900243269e-02	-4.081850607797022e+02	2.214613776295664e-01	1.091000129886864e+02	4.630411846447067e+02	
301	2.100000000000000e+01	8.000000000000000e+00	-1.103620104895873e-03	-2.382100101188083e-02	-3.943324181372976e+02	1.569165293282282e-01	1.091402184421590e+02	4.508527301593346e+02	
302	2.200000000000000e+01	8.000000000000000e+00	-1.142527580474888e-03	-2.322165016295059e-02	-3.804896067116944e+02	1.179472810066482e-01	1.091636639932990e+02	4.387811895490443e+02	
303	2.300000000000000e+01	8.000000000000000e+00	-1.180061328781069e-03	-2.260327075582541e-02	-3.666516156652343e+02	9.708729931164761e-02	1.091764667399512e+02	4.268285542058490e+02	
304	2.400000000000000e+01	8.000000000000000e+00	-1.216222025555420e-03	-2.196655643768639e-02	-3.528153633890730e+02	8.893953482151762e-02	1.091831044257926e+02	4.150002990244874e+02	
305	2.500000000000000e+01	8.000000000000000e+00	-1.251009947760354e-03	-2.131220028373086e-02	-3.389791393026964e+02	8.998229821283132e-02	1.091868803394938e+02	4.033050564725118e+02	
306	2.600000000000000e+01	8.000000000000000e+00	-1.284425142639698e-03	-2.064089487085377e-02	-3.251422427099137e+02	9.837108951101392e-02	1.091903698792953e+02	3.917545205382266e+02	
307	2.700000000000000e+01	8.000000000000000e+00	-1.316467564255963e-03	-1.995333232948141e-02	-3.113047940297474e+02	1.137865484288909e-01	1.091958373765314e+02	3.803635838651928e+02	
308	2.800000000000000e+01	8.000000000000000e+00	-1.347137195588258e-03	-1.925020436842321e-02	-2.974676997059047e+02	1.373460218069171e-01	1.092056257865579e+02	3.691506983012874e+02	
309	2.900000000000000e+01	8.000000000000000e+00	-1.376434172682657e-03	-1.853220227471103e-02	-2.836327593272780e+02	1.715690568663062e-01	1.092225274792186e+02	3.581384353087083e+02	
310	3.000000000000000e+01	8.000000000000000e+00	-1.404358925954807e-03	-1.780001689699102e-02	-2.698029055093219e+02	2.203583834687892e-01	1.092501379481848e+02	3.473541904311869e+02	
311	3.100000000000000e+01	8.000000000000000e+00	-1.430912351022434e-03	-1.705433862890754e-02	-2.559825634021065e+02	2.889240927825787e-01	1.092931823381412e+02	3.368309281007844e+02	
312	3.200000000000000e+01	8.000000000000000e+00	-1.456096017252042e-03	-1.629585741978574e-02	-2.421781046312811e+02	3.835291493999176e-01	1.093577798289452e+02	3.266077804015352e+02	
313	3.300000000000000e+01	8.000000000000000e+00	-1.479912413886200e-03	-1.552526285554622e-02	-2.283983374700211e+02	5.108694039761801e-01	1.094515737807924e+02	3.167301895999993e+02	
314	3.400000000000000e+01	8.000000000000000e+00	-1.502365219141319e-03	-1.474324437518575e-02	-2.146549210702564e+02	6.768095134588004e-01	1.095835982732890e+02	3.072491077908348e+02	
315	3.500000000000000e+01	8.000000000000000e+00	-1.523459553122913e-03	-1.395049171939400e-02	-2.009625057063762e+02	8.840814474282235e-01	1.097636693100031e+02	2.982185392413109e+02	
316	3.600000000000000e+01	8.000000000000000e+00	-1.543202136588737e-03	-1.314769575095064e-02	-1.873382778474898e+02	1.128422321625812e+00	1.100009656461284e+02	2.896904327811987e+02	
317	3.700000000000000e+01	8.000000000000000e+00	-1.561601220949031e-03	-1.233554984489417e-02	-1.738004475485784e+02	1.392513515317864e+00	1.103012861940897e+02	2.817056416733925e+02	
318	3.800000000000000e+01	8.000000000000000e+00	-1.578666080826376e-03	-1.151475212580940e-02	-1.603650991109644e+02	1.637056799813542e+00	1.106622065911050e+02	2.742794093441752e+02	
319	3.900000000000000e+01	8.000000000000000e+00	-1.594405779111433e-03	-1.068600893785125e-02	-1.470408605906427e+02	1.788534584178101e+00	1.110649785626151e+02	2.673797051396377e+02	
320	4.000000000000000e+01	8.000000000000000e+00	-1.608826860065852e-03	-9.850040079755184e-03	-1.338213127617034e+02	1.723922931426240e+00	1.114615115311528e+02	2.608968860112041e+02	
321	4.100000000000000e+01	8.000000000000000e+00	-1.621929681132211e-03	-9.007586519962446e-03	-1.206764173757848e+02	1.254346076535934e+00	1.117542610537795e+02	2.546039483801675e+02	
322	4.200000000000000e+01	8.000000000000000e+00	-1.633703414998656e-03	-8.159421481882020e-03	-1.075473083491530e+02	1.130467655307661e-01	1.117669250421788e+02	2.481091175208115e+02	
323	4.300000000000000e+01	8.000000000000000e+00	-1.644120624458823e-03	-7.306365721602802e-03	-9.435365122541069e+01	-2.040722283493182e+00	1.112059767902125e+02	2.408085420937069e+02	
324	4.400000000000000e+01	8.000000000000000e+00	-1.653133980002492e-03	-6.449307012935815e-03	-8.102935092099806e+01	-5.582346529576170e+00	1.096217257844637e+02	2.318619018456803e+02	
325	4.500000000000000e+01	8.000000000000000e+00	-1.660680350223764e-03	-5.589220704962677e-03	-6.759450714348412e+01	-1.081624957123526e+01	1.063961345633761e+02	2.202369640479381e+02	
326	4.600000000000000e+01	8.000000000000000e+00	-1.666698258152325e-03	-4.727181984471390e-03	-5.424421581297738e+01	-1.779686715617679e+01	1.008137282142514e+02	2.048951937209319e+02	
327	4.700000000000000e+01	8.000000000000000e+00	-1.671160470251747e-03	-3.864353053733091e-03	-4.138014529261596e+01	-2.614202926161030e+01	9.225960039145546e+01	1.851473349463572e+02	
328	4.800000000000000e+01	8.000000000000000e+00	-1.674108930833578e-03	-3.001931715889335e-03	-2.951446638644071e+01	-3.502727059229317e+01	8.049088278937677e+01	1.610761306310306e+02	
329	4.900000000000000e+01	8.000000000000000e+00	-1.675668409834845e-03	-2.141076933856169e-03	-1.910106745092506e+01	-4.349385416201778e+01	6.570780911117210e+01	1.336602886286491e+02	
330	5.000000000000000e+01	8.000000000000000e+00	-1.676029145668016e-03	-1.282882012859671e-03	-1.055485301451601e+01	-5.075858778802703e+01	4.805507165453898e+01	1.041801321588254e+02	
331	5.100000000000000e+01	8.000000000000000e+00	-1.675445810581391e-03	-4.285042139916387e-04	-4.694278318680235e+00	-5.563749659528243e+01	2.646862388769693e+01	7.346811342624076e+01	
332	1.000000000000000e+00	7.000000000000000e+00	-2.160028942396693e-05	-3.075582167074287e-02	-2.818076103110922e+02	-1.872625791285921e+02	5.290623751619120e+01	1.418980013734460e+02	
333	2.000000000000000e+00	7.000000000000000e+00	-4.512576333480330e-05	-3.069127186582871e-02	-2.934959076101202e+02	-1.464672167904365e+02	9.328283531019409e+01	2.375377556898804e+02	
334	3.000000000000000e+00	7.000000000000000e+00	-7.151414794795836e-05	-3.058747242953170e-02	-3.065375390966591e+02	-9.914068860592306e+01	1.161283748075063e+02	3.113786301839087e+02	
335	4.000000000000000e+00	7.000000000000000e+00	-1.004923204901674e-04	-3.044813598974566e-02	-3.155454136266260e+02	-5.927810429418135e+01	1.246202235251645e+02	3.574824950656168e+02	
336	5.000000000000000e+00	7.000000000000000e+00	-1.310809266320967e-04	-3.027617977545191e-02	-3.181012363751120e+02	-3.158486206626141e+01	1.251972491437881e+02	3.805115471569508e+02	
337	6.000000000000000e+00	7.000000000000000e+00	-1.622406922112588e-04	-3.007345288481011e-02	-3.148741124492930e+02	-1.450451975824027e+01	1.230558845334468e+02	3.883206086298084e+02	
338	7.000000000000000e+00	7.000000000000000e+00	-1.932192309508471e-04	-2.984104127787231e-02	-3.079294943153199e+02	-4.751919779969841e+00	1.208243200837040e+02	3.876992481239745e+02	
339	8.000000000000000e+00	7.000000000000000e+00	-2.235872719456914e-04	-2.957965833070802e-02	-2.992002019129269e+02	4.080323661250684e-01	1.193115074282767e+02	3.830222412171938e+02	
340	9.000000000000000e+00	7.000000000000000e+00	-2.531429594721569e-04	-2.928989503634186e-02	-2.899151172418515e+02	2.814884121671087e+00	1.185314846846506e+02	3.766824991215787e+02	
341	1.000000000000000e+01	7.000000000000000e+00	-2.818130625494521e-04	-2.897232999485431e-02	-2.806930761926760e+02	3.647296409267318e+00	1.182713969269603e+02	3.698674638510805e+02	
342	1.100000000000000e+01	7.000000000000000e+00	-3.095901134222959e-04	-2.862756431224700e-02	-2.717936895080235e+02	3.634837867778067e+00	1.183158801376969e+02	3.631190764245719e+02	
343	1.200000000000000e+01	7.000000000000000e+00	-3.364964795865997e-04	-2.825622720012895e-02	-2.632880694127012e+02	3.217630399734054e+00	1.185065755726698e+02	3.566518215968614e+02	
344	1.300000000000000e+01	7.000000000000000e+00	-3.625652233994021e-04	-2.785897141985974e-02	-2.551584676712401e+02	2.651700225127737e+00	1.187441670126235e+02	3.505235961655659e+02	
345	1.400000000000000e+01	7.000000000000000e+00	-3.878304227508902e-04	-2.743646671124400e-02	-2.473509730141300e+02	2.077637370475729e+00	1.189740415056659e+02	3.447229639684062e+02	
346	1.500000000000000e+01	7.000000000000000e+00	-4.123226907170707e-04	-2.698939397113677e-02	-2.398021481787831e+02	1.565050417020295e+00	1.191710069255331e+02	3.392123820330972e+02	
347	1.600000000000000e+01	7.000000000000000e+00	-4.360674921439568e-04	-2.651844088586040e-02	-2.324516746387634e+02	1.141325712716005e+00	1.193273311250914e+02	3.339487050835129e+02	
348	1.700000000000000e+01	7.000000000000000e+00	-4.590849188076008e-04	-2.602429894081609e-02	-2.252476466763259e+02	8.100748991807070e-01	1.194445649846966e+02	3.288922466423356e+02	
349	1.800000000000000e+01	7.000000000000000e+00	-4.813901724007298e-04	-2.550766150848631e-02	-2.181480632336350e+02	5.627452065067899e-01	1.195284284823051e+02	3.240101828497656e+02	
350	1.900000000000000e+01	7.000000000000000e+00	-5.029943351936470e-04	-2.496922270227546e-02	-2.111204332054289e+02	3.856894990702830e-01	1.195858658635771e+02	3.192772419056148e+02	
351	2.000000000000000e+01	7.000000000000000e+00	-5.239051985717659e-04	-2.440967673937835e-02	-2.041405392005642e+02	2.642533921319732e-01	1.196235145541553e+02	3.146751661189933e+02	
352	2.100000000000000e+01	7.000000000000000e+00	-5.441280318494095e-04	-2.382971762312141e-02	-1.971909313869129e+02	1.849484183487320e-01	1.196470359294735e+02	3.101917000110351e+02	
353	2.200000000000000e+01	7.000000000000000e+00	-5.636662400090844e-04	-2.323003901402914e-02	-1.902594554599173e+02	1.364445009855757e-01	1.196609364791658e+02	3.058194853147947e+02	
354	2.300000000000000e+01	7.000000000000000e+00	-5.825218976745062e-04	-2.261133420374943e-02	-1.833379662469411e+02	1.098776705000315e-01	1.196686449546162e+02	3.015550526505133e+02	
355	2.400000000000000e+01	7.000000000000000e+00	-6.006961680042938e-04	-2.197429613799630e-02	-1.764212893595664e+02	9.880116171059683e-02	1.196727066139048e+02	2.973979979603608e+02	
356	2.500000000000000e+01	7.000000000000000e+00	-6.181896260170174e-04	-2.131961745622254e-02	-1.695064457915217e+02	9.898811689006592e-02	1.196750185570799e+02	2.933503766450800e+02	
357	2.600000000000000e+01	7.000000000000000e+00	-6.350025105395519e-04	-2.064799052981762e-02	-1.625921312473787e+02	1.082118539480224e-01	1.196770690420959e+02	2.894163178939913e+02	
358	2.700000000000000e+01	7.000000000000000e+00	-6.511349301217722e-04	-1.996010748962165e-02	-1.556784317061388e+02	1.260711653813598e-01	1.196801668918170e+02	2.856018426131985e+02	
359	2.800000000000000e+01	7.000000000000000e+00	-6.665870476366882e-04	-1.925666023919787e-02	-1.487667591789011e+02	1.538853857089588e-01	1.196856590140082e+02	2.819148564230141e+02	
360	2.900000000000000e+01	7.000000000000000e+00	-6.813592669408249e-04	-1.853834045441220e-02	-1.418599911712436e+02	1.946500968266127e-01	1.196951392103432e+02	2.783652753274623e+02	
361	3.000000000000000e+01	7.000000000000000e+00	-6.954524426379638e-04	-1.780583957320831e-02	-1.349627978456586e+02	2.530100821471537e-01	1.197106508768561e+02	2.749652240684472e+02	
362	3.100000000000000e+01	7.000000000000000e+00	-7.088681305608739e-04	-1.705984878328659e-02	-1.280821358097498e+02	3.351638783879745e-01	1.197348809312041e+02	2.717292212950817e+02	
363	3.200000000000000e+01	7.000000000000000e+00	-7.216088903888203e-04	-1.630105902030373e-02	-1.212278620712880e+02	4.485601872415250e-01	1.197713339297046e+02	2.686742292421051e+02	
364	3.300000000000000e+01	7.000000000000000e+00	-7.336786405874044e-04	-1.553016099622676e-02	-1.144133802726076e+02	6.011681872639718e-01	1.198244586578433e+02	2.658193934384942e+02	
365	3.400000000000000e+01	7.000000000000000e+00	-7.450830464225387e-04	-1.474784528759806e-02	-1.076561546745581e+02	7.999976434954723e-01	1.198996761495494e+02	2.631852319920404e+02	
366	3.500000000000000e+01	7.000000000000000e+00	-7.558298887179860e-04	-1.395480252844141e-02	-1.009778031454818e+02	1.048406489387799e+00	1.200032169039551e+02	2.607919395258394e+02	
367	3.600000000000000e+01	7.000000000000000e+00	-7.659293087072549e-04	-1.315172377559048e-02	-9.440330042886275e+01	1.341563463279704e+00	1.201416033755143e+02	2.586563326274507e+02	
368	3.700000000000000e+01	7.000000000000000e+00	-7.753937450594099e-04	-1.233930115201525e-02	-8.795857755676064e+01	1.659250565159803e+00	1.203204781419086e+02	2.567867304953277e+02	
369	3.800000000000000e+01	7.000000000000000e+00	-7.842372666815390e-04	-1.151822893967545e-02	-8.166551546022598e+01	1.955040949125912e+00	1.205422139707898e+02	2.551746438228694e+02	
370	3.900000000000000e+01	7.000000000000000e+00	-7.924738591356348e-04	-1.068920541392213e-02	-7.553308013171306e+01	2.140884456544814e+00	1.208012337902563e+02	2.537813963155112e+02	
371	4.000000000000000e+01	7.000000000000000e+00	-8.001140599804902e-04	-9.852935932659122e-03	-6.954338485787189e+01	2.066516933546806e+00	1.210750239205931e+02	2.525165810477906e+02	
372	4.100000000000000e+01	7.000000000000000e+00	-8.071592232853278e-04	-9.010138189889045e-03	-6.363242728143609e+01	1.494365225571559e+00	1.213072369759684e+02	2.512036665202677e+02	
373	4.200000000000000e+01	7.000000000000000e+00	-8.135927991795831e-04	-8.161551184711123e-03	-5.766839505790327e+01	7.388081258757828e-02	1.213769370437142e+02	2.495267797394878e+02	
374	4.300000000000000e+01	7.000000000000000e+00	-8.193687248178534e-04	-7.307950383084110e-03	-5.143906335324246e+01	-2.673908869457787e+00	1.210463811124204e+02	2.469553518623978e+02	
375	4.400000000000000e+01	7.000000000000000e+00	-8.243992665792997e-04	-6.450172121070120e-03	-4.467423723505370e+01	-7.334417954605881e+00	1.198817235509750e+02	2.426536063406149e+02	
376	4.500000000000000e+01	7.000000000000000e+00	-8.285492360014839e-04	-5.589149579140804e-03	-3.716035767740809e+01	-1.449327784051887e+01	1.171661572279729e+02	2.354260608059613e+02	
377	4.600000000000000e+01	7.000000000000000e+00	-8.316531517715031e-04	-4.725953056111300e-03	-2.895633158235686e+01	-2.443490766257553e+01	1.118822677242646e+02	2.238102111136988e+02	
378	4.700000000000000e+01	7.000000000000000e+00	-8.335707302608019e-04	-3.861807938014258e-03	-2.061452290854260e+01	-3.666327137033552e+01	1.029512946734901e+02	2.065270893296594e+02	
379	4.800000000000000e+01	7.000000000000000e+00	-8.342769710067591e-04	-2.998044017989121e-03	-1.310985137852433e+01	-4.958127069491700e+01	8.978948540982866e+01	1.832451123157163e+02	
380	4.900000000000000e+01	7.000000000000000e+00	-8.339225847036148e-04	-2.135962350213471e-03	-7.320512806939096e+00	-6.112371391619823e+01	7.282450152013141e+01	1.552688524341758e+02	
381	5.000000000000000e+01	7.000000000000000e+00	-8.327820642420954e-04	-1.276727274562628e-03	-3.458952852530846e+00	-7.054705941266823e+01	5.292609361509109e+01	1.253215846661615e+02	
382	5.100000000000000e+01	7.000000000000000e+00	-8.310929256355802e-04	-4.215261740655192e-04	-1.288079052168561e+00	-7.945460569965415e+01	2.921223104494268e+01	9.758803030405177e+01	
383	1.000000000000000e+00	6.000000000000000e+00	7.942891429865950e-06	-3.074339419337311e-02	3.082292156209057e+01	-1.406001268713421e+02	4.316860821697658e+01	1.919374285431955e+02	
384	2.000000000000000e+00	6.000000000000000e+00	1.459986568115305e-05	-3.068222425917042e-02	2.155464573844619e+01	-1.156423195714225e+02	7.900039400204317e+01	2.092540472730445e+02	
385	3.000000000000000e+00	6.000000000000000e+00	1.918898879515971e-05	-3.058257432653591e-02	9.869600775764603e+00	-8.419560452779166e+01	1.036238633768052e+02	2.275958767054872e+02	
386	4.000000000000000e+00	6.000000000000000e+00	2.161757086984743e-05	-3.044697309650000e-02	-7.332355465501905e-01	-5.466947764230495e+01	1.174886398731899e+02	2.410880341460777e+02	
387	5.000000000000000e+00	6.000000000000000e+00	2.230796984518078e-05	-3.027775596744305e-02	-8.085931660364004e+00	-3.161744393166850e+01	1.236572281101453e+02	2.484314237879593e+02	
388	6.000000000000000e+00	6.000000000000000e+00	2.187435813684975e-05	-3.007674487654789e-02	-1.176571894839053e+01	-1.580335634084104e+01	1.255197133111938e+02	2.510718945533531e+02	
389	7.000000000000000e+00	6.000000000000000e+00	2.086963934976740e-05	-2.984526149327963e-02	-1.253488375364623e+01	-5.976384877079877e+00	1.255067292623058e+02	2.510991243871647e+02	
390	8.000000000000000e+00	6.000000000000000e+00	1.968066077562858e-05	-2.958428706691860e-02	-1.152034928558081e+01	-4.096105376247152e-01	1.249291748907199e+02	2.501052647807111e+02	
391	9.000000000000000e+00	6.000000000000000e+00	1.853148874933393e-05	-2.929461983494002e-02	-9.682064911840012e+00	2.381734090382956e+00	1.243355927202470e+02	2.489636393426691e+02	
392	1.000000000000000e+01	6.000000000000000e+00	1.752803245902957e-05	-2.897697678218136e-02	-7.649256604000899e+00	3.482265971147047e+00	1.238893866812021e+02	2.480286905255493e+02	
393	1.100000000000000e+01	6.000000000000000e+00	1.670355750760281e-05	-2.863204549844511e-02	-5.762975869396641e+00	3.626693255119896e+00	1.235986470825656e+02	2.473755608964441e+02	
394	1.200000000000000e+01	6.000000000000000e+00	1.605179294504296e-05	-2.826050647457407e-02	-4.172005182063013e+00	3.285946235729995e+00	1.234257395133947e+02	2.469641142697934e+02	
395	1.300000000000000e+01	6.000000000000000e+00	1.554810026156521e-05	-2.786304119289534e-02	-2.912639475728116e+00	2.746544067292946e+00	1.233299782058521e+02	2.467248679306514e+02	
396	1.400000000000000e+01	6.000000000000000e+00	1.516186403964712e-05	-2.744033412076018e-02	-1.962907527694600e+00	2.171832008562626e+00	1.232802927009143e+02	2.465952520725513e+02	
397	1.500000000000000e+01	6.000000000000000e+00	1.486314299722273e-05	-2.699307250622139e-02	-1.275640272619637e+00	1.646177871341207e+00	1.232562366789536e+02	2.465297883467621e+02	
398	1.600000000000000e+01	6.000000000000000e+00	1.462579521060877e-05	-2.652194561366127e-02	-7.971655926759587e-01	1.205560146907631e+00	1.232455450815656e+02	2.464992260438090e+02	
399	1.700000000000000e+01	6.000000000000000e+00	1.442855464698214e-05	-2.602764399817913e-02	-4.769567974935764e-01	8.580392380124646e-01	1.232413650041550e+02	2.464863452744680e+02	
400	1.800000000000000e+01	6.000000000000000e+00	1.425499821283546e-05	-2.551085897485212e-02	-2.718803167928412e-01	5.969822150105912e-01	1.232401049955936e+02	2.464817413915255e+02	
401	1.900000000000000e+01	6.000000000000000e+00	1.409297908706913e-05	-2.497228227705751e-02	-1.473848673690066e-01	4.092528279664478e-01	1.232400039626063e+02	2.464806364652947e+02	
402	2.000000000000000e+01	6.000000000000000e+00	1.393386442820140e-05	-2.441260585436511e-02	-7.708937880419953e-02	2.800080176615012e-01	1.232402648882736e+02	2.464807884551612e+02	
403	2.100000000000000e+01	6.000000000000000e+00	1.377176320171252e-05	-2.383252176081520e-02	-4.164951493421221e-02	1.952879495430668e-01	1.232405662903277e+02	2.464812464622912e+02	
404	2.200000000000000e+01	6.000000000000000e+00	1.360283519396409e-05	-2.323272209693058e-02	-2.741005577837452e-02	1.432349246580547e-01	1.232408035579892e+02	2.464816661867265e+02	
405	2.300000000000000e+01	6.000000000000000e+00	1.342471519940826e-05	-2.261389898157343e-02	-2.511987181880748e-02	1.145127738552461e-01	1.232409604410670e+02	2.464819604332583e+02	
406	2.400000000000000e+01	6.000000000000000e+00	1.323605383331062e-05	-2.197674453938089e-02	-2.884580162695061e-02	1.023039949774933e-01	1.232410496836854e+02	2.464821342588862e+02	
407	2.500000000000000e+01	6.000000000000000e+00	1.303615914963217e-05	-2.132195089583805e-02	-3.513827242608114e-02	1.021258073643585e-01	1.232410879212364e+02	2.464822140631394e+02	
408	2.600000000000000e+01	6.000000000000000e+00	1.282471531684153e-05	-2.065021017576764e-02	-4.246058141915388e-02	1.116090021797822e-01	1.232410869214410e+02	2.464822219953180e+02	
409	2.700000000000000e+01	6.000000000000000e+00	1.260155171718027e-05	-1.996221450315087e-02	-5.087269338450229e-02	1.303176359782690e-01	1.232410515933402e+02	2.464821697836677e+02	
410	2.800000000000000e+01	6.000000000000000e+00	1.236643561032889e-05	-1.925865600112661e-02	-6.195621388762707e-02	1.596399185745669e-01	1.232409820850473e+02	2.464820637815128e+02	
411	2.900000000000000e+01	6.000000000000000e+00	1.211886284125671e-05	-1.854022679133449e-02	-7.896544335226174e-02	2.027428603020285e-01	1.232408796644413e+02	2.464819203134979e+02	
412	3.000000000000000e+01	6.000000000000000e+00	1.185782296073637e-05	-1.780761899150738e-02	-1.071902245688303e-01	2.645473145606054e-01	1.232407604328262e+02	2.464818011883293e+02	
413	3.100000000000000e+01	6.000000000000000e+00	1.158151892116669e-05	-1.706152470941462e-02	-1.545074901739976e-01	3.516375163365622e-01	1.232406849138953e+02	2.464818895070218e+02	
414	3.200000000000000e+01	6.000000000000000e+00	1.128702727868246e-05	-1.630263602969704e-02	-2.320796436941390e-01	4.719627139641140e-01	1.232408185992605e+02	2.464826426986386e+02	
415	3.300000000000000e+01	6.000000000000000e+00	1.096989610359955e-05	-1.553164498769160e-02	-3.551141499309987e-01	6.341101011244490e-01	1.232415484902502e+02	2.464850820267174e+02	
416	3.400000000000000e+01	6.000000000000000e+00	1.062369698696165e-05	-1.474924352091293e-02	-5.435231366271154e-01	8.458188533376640e-01	1.232436945604629e+02	2.464913046474779e+02	
417	3.500000000000000e+01	6.000000000000000e+00	1.023958017503126e-05	-1.395612338500775e-02	-8.221951379377046e-01	1.111256942463327e+00	1.232488676357646e+02	2.465053178552951e+02	
418	3.600000000000000e+01	6.000000000000000e+00	9.805935664895184e-06	-1.315297601926143e-02	-1.220392664874923e+00	1.426387022013257e+00	1.232600263158964e+02	2.465342608894204e+02	
419	3.700000000000000e+01	6.000000000000000e+00	9.308347122613054e-06	-1.234049235386548e-02	-1.769484515693139e+00	1.771501770621676e+00	1.232822402619215e+02	2.465899057947676e+02	
420	3.800000000000000e+01	6.000000000000000e+00	8.730154556561398e-06	-1.151936258341620e-02	-2.497781829120747e+00	2.099715069508048e+00	1.233235017576704e+02	2.466898484348909e+02	
421	3.900000000000000e+01	6.000000000000000e+00	8.054131988699183e-06	-1.069027602390999e-02	-3.420633410575926e+00	2.319885831847662e+00	1.233949738149751e+02	2.468567029925786e+02	
422	4.000000000000000e+01	6.000000000000000e+00	7.266056216216520e-06	-9.853921396294022e-03	-4.523211095198613e+00	2.272220218689415e+00	1.235090050710193e+02	2.471114631523072e+02	
423	4.100000000000000e+01	6.000000000000000e+00	6.361291753797114e-06	-9.010988371912190e-03	-5.732879742088694e+00	1.694968489644695e+00	1.236709311484429e+02	2.474533688876458e+02	
424	4.200000000000000e+01	6.000000000000000e+00	5.355883970876657e-06	-8.162172231377322e-03	-6.879104747907204e+00	1.819342982888710e-01	1.238562762865060e+02	2.478131694939742e+02	
425	4.300000000000000e+01	6.000000000000000e+00	4.303710198449387e-06	-7.308185309724735e-03	-7.644394894865115e+00	-2.864118717964943e+00	1.239565803331725e+02	2.479592431669051e+02	
426	4.400000000000000e+01	6.000000000000000e+00	3.320173555462662e-06	-6.449782242388031e-03	-7.534283138325218e+00	-8.265110403975683e+00	1.236685336923150e+02	2.473381471001213e+02	
427	4.500000000000000e+01	6.000000000000000e+00	2.607358773197723e-06	-5.587808657453741e-03	-5.933614118188062e+00	-1.702116872137990e+01	1.222904163211147e+02	2.448320190723530e+02	
428	4.600000000000000e+01	6.000000000000000e+00	2.463640945697597e-06	-4.723286657694866e-03	-2.495385055538590e+00	-3.008515343075656e+01	1.184780702117305e+02	2.385569278042059e+02	
429	4.700000000000000e+01	6.000000000000000e+00	3.217477028438866e-06	-3.857511027063312e-03	2.229324154011163e+00	-4.741730640959145e+01	1.102073667935099e+02	2.259368113180227e+02	
430	4.800000000000000e+01	6.000000000000000e+00	5.054226641814359e-06	-2.992057552374072e-03	6.415874389515956e+00	-6.659411899481486e+01	9.572961072725857e+01	2.049075221019225e+02	
431	4.900000000000000e+01	6.000000000000000e+00	7.791525546425108e-06	-2.128550782268479e-03	7.946552942308474e+00	-8.276982312471503e+01	7.534147074077549e+01	1.758829432897521e+02	
432	5.000000000000000e+01	6.000000000000000e+00	1.090031370757789e-05	-1.268245370182348e-03	6.468080170033237e+00	-9.304022821437249e+01	5.205301801848332e+01	1.440137846765239e+02	
433	5.100000000000000e+01	6.000000000000000e+00	1.395397821062285e-05	-4.119642098194023e-04	3.899377943519154e+00	-1.031202025494178e+02	2.761377371798773e+01	1.204295337725640e+02	
434	1.000000000000000e+00	5.000000000000000e+00	3.777691855666396e-05	-3.072585023904382e-02	3.425427635634279e+02	-1.018078831069661e+02	3.592777703831629e+01	4.501230030203491e+02	
435	2.000000000000000e+00	5.000000000000000e+00	7.461643074554487e-05	-3.066684338739713e-02	3.345207563370021e+02	-8.628994111440574e+01	6.725175216137526e+01	4.417836979389806e+02	
436	3.000000000000000e+00	5.000000000000000e+00	1.098551866691591e-04	-3.057002712143301e-02	3.234179539748648e+02	-6.569560490502310e+01	9.109757497329667e+01	4.296561815780539e+02	
437	4.000000000000000e+00	5.000000000000000e+00	1.432338988499392e-04	-3.043722275643055e-02	3.115369011269497e+02	-4.497356840931076e+01	1.069746184360352e+02	4.157811814489758e+02	
438	5.000000000000000e+00	5.000000000000000e+00	1.748465919106675e-04	-3.027030711612442e-02	3.006150190139114e+02	-2.749489564631194e+01	1.162033338117708e+02	4.020808068712287e+02	
439	6.000000000000000e+00	5.000000000000000e+00	2.049837572222657e-04	-3.007095135929325e-02	2.914369599003526e+02	-1.456352835193169e+01	1.208124068959111e+02	3.898959469532469e+02	
440	7.000000000000000e+00	5.000000000000000e+00	2.339746986132809e-04	-2.984053744554517e-02	2.839662872245393e+02	-5.974456347491778e+00	1.226600181861189e+02	3.797993615434054e+02	
441	8.000000000000000e+00	5.000000000000000e+00	2.620904748046431e-04	-2.958019181931551e-02	2.777298423043108e+02	-8.276887216009303e-01	1.230644917767407e+02	3.717173316329515e+02	
442	9.000000000000000e+00	5.000000000000000e+00	2.895119210337441e-04	-2.929086010197633e-02	2.721705150399436e+02	1.892456501084167e+00	1.228156430700481e+02	3.652190543473503e+02	
443	1.000000000000000e+01	5.000000000000000e+00	3.163378853287616e-04	-2.897337566369214e-02	2.668405928665622e+02	3.048179343009997e+00	1.223316874521615e+02	3.597868875489407e+02	
444	1.100000000000000e+01	5.000000000000000e+00	3.426080666313193e-04	-2.862850711873930e-02	2.614533999863122e+02	3.279027574166058e+00	1.218127468648936e+02	3.549751931691679e+02	
445	1.200000000000000e+01	5.000000000000000e+00	3.683257312857248e-04	-2.825698689990892e-02	2.558609977783329e+02	3.020690370634016e+00	1.213439928891620e+02	3.504649475927081e+02	
446	1.300000000000000e+01	5.000000000000000e+00	3.934749666358916e-04	-2.785952735891019e-02	2.500108829327231e+02	2.549547541540251e+00	1.209542534825179e+02	3.460590097882734e+02	
447	1.400000000000000e+01	5.000000000000000e+00	4.180320665629832e-04	-2.743682969356594e-02	2.439069236692499e+02	2.028191927039636e+00	1.206463625407921e+02	3.416540648763266e+02	
448	1.500000000000000e+01	5.000000000000000e+00	4.419722425345003e-04	-2.698958894873183e-02	2.375810866916986e+02	1.543087797534165e+00	1.204121371700827e+02	3.372095313502108e+02	
449	1.600000000000000e+01	5.000000000000000e+00	4.652730960506301e-04	-2.651849688762773e-02	2.310754797780866e+02	1.132756523607213e+00	1.202395651915120e+02	3.327219080966289e+02	
450	1.700000000000000e+01	5.000000000000000e+00	4.879160476375339e-04	-2.602424367449856e-02	2.244321587706943e+02	8.075172878922601e-01	1.201161886453744e+02	3.282066047127578e+02	
451	1.800000000000000e+01	5.000000000000000e+00	5.098865866545109e-04	-2.550751886247834e-02	2.176881283500595e+02	5.625812679179329e-01	1.200306337139919e+02	3.236864459856934e+02	
452	1.900000000000000e+01	5.000000000000000e+00	5.311739149634621e-04	-2.496901195683449e-02	2.108735179243303e+02	3.862831083624219e-01	1.199732180941937e+02	3.191851629696785e+02	
453	2.000000000000000e+01	5.000000000000000e+00	5.517703381509922e-04	-2.440941271248774e-02	2.040115255335998e+02	2.649453693859378e-01	1.199360856658921e+02	3.147242086462959e+02	
454	2.100000000000000e+01	5.000000000000000e+00	5.716706061669063e-04	-2.382941126639181e-02	1.971192200894486e+02	1.855247586390316e-01	1.199130970160195e+02	3.103215811066664e+02	
455	2.200000000000000e+01	5.000000000000000e+00	5.908713062185813e-04	-2.322969817156552e-02	1.902086533417183e+02	1.368724866984881e-01	1.198996000983550e+02	3.059917291241390e+02	
456	2.300000000000000e+01	5.000000000000000e+00	6.093703501227082e-04	-2.261096437780287e-02	1.832879741316714e+02	1.101842841196499e-01	1.198921527007570e+02	3.017459458059386e+02	
457	2.400000000000000e+01	5.000000000000000e+00	6.271665630419700e-04	-2.197390118889419e-02	1.763623916533151e+02	9.902220489971292e-02	1.198882367057692e+02	2.975928974471380e+02	
458	2.500000000000000e+01	5.000000000000000e+00	6.442593621174363e-04	-2.131920021545079e-02	1.694349221377478e+02	9.915009047567125e-02	1.198859851671303e+02	2.935390969748651e+02	
459	2.600000000000000e+01	5.000000000000000e+00	6.606485043988348e-04	-2.064755333463097e-02	1.625069022492433e+02	1.083277367398487e-01	1.198839299095206e+02	2.895892325448177e+02	
460	2.700000000000000e+01	5.000000000000000e+00	6.763338803966346e-04	-1.995965266262253e-02	1.555782724604536e+02	1.261415666183527e-01	1.198807699474344e+02	2.857463228323207e+02	
461	2.800000000000000e+01	5.000000000000000e+00	6.913153288571208e-04	-1.925619054158992e-02	1.486476422107973e+02	1.539035902715016e-01	1.198751568635908e+02	2.820117078097700e+02	
462	2.900000000000000e+01	5.000000000000000e+00	7.055924493430675e-04	-1.853785953924954e-02	1.417121473861249e+02	1.946140619626338e-01	1.198654952883619e+02	2.783849135299048e+02	
463	3.000000000000000e+01	5.000000000000000e+00	7.191643906337025e-04	-1.780535245541180e-02	1.347671073991247e+02	2.529493098487654e-01	1.198497610794194e+02	2.748634563736007e+02	
464	3.100000000000000e+01	5.000000000000000e+00	7.320295954742588e-04	-1.705936232465807e-02	1.278054947468387e+02	3.351990867480126e-01	1.198253530915163e+02	2.714426960699020e+02	
465	3.200000000000000e+01	5.000000000000000e+00	7.441854864679975e-04	-1.630058239675095e-02	1.208172380608431e+02	4.490262609389832e-01	1.197890142020458e+02	2.681159042390031e+02	
466	3.300000000000000e+01	5.000000000000000e+00	7.556280857958218e-04	-1.552970606512282e-02	1.137884092633481e+02	6.028519811058635e-01	1.197368898391285e+02	2.648748035028664e+02	
467	3.400000000000000e+01	5.000000000000000e+00	7.663515753234980e-04	-1.474742669747475e-02	1.067003972906641e+02	8.045697249875925e-01	1.196648393355363e+02	2.617109500739668e+02	
468	3.500000000000000e+01	5.000000000000000e+00	7.763478281303840e-04	-1.395443730027508e-02	9.952926735518402e+01	1.059152961857222e+00	1.195691807124924e+02	2.586184821965775e+02	
469	3.600000000000000e+01	5.000000000000000e+00	7.856059839339243e-04	-1.315142992102702e-02	9.224566440775251e+01	1.364524486699041e+00	1.194481287818504e+02	2.555989113265004e+02	
470	3.700000000000000e+01	5.000000000000000e+00	7.941122091993735e-04	-1.233909466251984e-02	8.481589758532800e+01	1.704779847677357e+00	1.193042644361946e+02	2.526687316274956e+02	
471	3.800000000000000e+01	5.000000000000000e+00	8.018498963804730e-04	-1.151811816410686e-02	7.720532078666530e+01	2.039460881479517e+00	1.191483967573293e+02	2.498705030503877e+02	
472	3.900000000000000e+01	5.000000000000000e+00	8.088007444475160e-04	-1.068918142701978e-02	6.938595104465651e+01	2.286992584946148e+00	1.190050180364844e+02	2.472873783633807e+02	
473	4.000000000000000e+01	5.000000000000000e+00	8.149474767417214e-04	-9.852956992519393e-03	6.135169750001528e+01	2.299539208246460e+00	1.189188791871978e+02	2.450590881960379e+02	
474	4.100000000000000e+01	5.000000000000000e+00	8.202794782598032e-04	-9.010105880757568e-03	5.314691742547852e+01	1.825295940344921e+00	1.189603378527135e+02	2.433930088560274e+02	
475	4.200000000000000e+01	5.000000000000000e+00	8.248034902937511e-04	-8.161275664592533e-03	4.491758609101230e+01	4.528443597032656e-01	1.192221723217627e+02	2.425547747411136e+02	
476	4.300000000000000e+01	5.000000000000000e+00	8.285628241489210e-04	-7.307103387027654e-03	3.699660360341606e+01	-2.469128528081717e+00	1.197900556990457e+02	2.428089244451222e+02	
477	4.400000000000000e+01	5.000000000000000e+00	8.316699361656203e-04	-6.448231466807529e-03	3.003327408356247e+01	-7.936387257112366e+00	1.206406298731267e+02	2.442505711089833e+02	
478	4.500000000000000e+01	5.000000000000000e+00	8.343578044698653e-04	-5.585356397034467e-03	2.510430792791671e+01	-1.741142756171854e+01	1.213913025069881e+02	2.464771410528713e+02	
479	4.600000000000000e+01	5.000000000000000e+00	8.370420090251619e-04	-4.719337485503182e-03	2.367589997282280e+01	-3.277582272849169e+01	1.207012658710595e+02	2.479152664267590e+02	
480	4.700000000000000e+01	5.000000000000000e+00	8.403615652148637e-04	-3.851441621339056e-03	2.606954321296332e+01	-5.609907315629932e+01	1.155120349522042e+02	2.452015546264666e+02	
481	4.800000000000000e+01	5.000000000000000e+00	8.449200816962101e-04	-2.983593065538308e-03	2.961735068022147e+01	-8.588670998129749e+01	1.009864342743406e+02	2.326676334582932e+02	
482	4.900000000000000e+01	5.000000000000000e+00	8.507321594100827e-04	-2.118188810369172e-03	2.905116325618133e+01	-1.123429970223021e+02	7.504435625210979e+01	2.062011886047986e+02	
483	5.000000000000000e+01	5.000000000000000e+00	8.567589921843415e-04	-1.256994535563295e-03	2.196103655292449e+01	-1.223534096210521e+02	4.395445481273156e+01	1.689811698564057e+02	
484	5.100000000000000e+01	5.000000000000000e+00	8.617470051446282e-04	-3.999395926415903e-04	1.328078911260669e+01	-1.225431986060190e+02	1.865247550662758e+01	1.408538782209803e+02	
485	1.000000000000000e+00	4.000000000000000e+00	6.810938188434539e-05	-3.070247815532242e-02	6.564645580535824e+02	-6.943921271157730e+01	2.982229375192528e+01	7.283500265872048e+02	
486	2.000000000000000e+00	4.000000000000000e+00	1.354596032588070e-04	-3.064488870330781e-02	6.487335824607646e+02	-5.992682862456957e+01	5.658396164262290e+01	7.176395732541024e+02	
487	3.000000000000000e+00	4.000000000000000e+00	2.014492457092381e-04	-3.055001680532941e-02	6.372900972124276e+02	-4.688122051133782e+01	7.815709922687877e+01	7.018009123919078e+02	
488	4.000000000000000e+00	4.000000000000000e+00	2.657233115452613e-04	-3.041926367018302e-02	6.237140844294375e+02	-3.316136393121403e+01	9.379605494085760e+01	6.831369953010015e+02	
489	5.000000000000000e+00	4.000000000000000e+00	3.281678934533761e-04	-3.025418658470315e-02	6.093849631585452e+02	-2.099113337402129e+01	1.039752170147075e+02	6.637901822810110e+02	
490	6.000000000000000e+00	4.000000000000000e+00	3.888373435783597e-04	-3.005629986568033e-02	5.951857105239701e+02	-1.151612727625201e+01	1.098602511831045e+02	6.452629070001051e+02	
491	7.000000000000000e+00	4.000000000000000e+00	4.478631823061010e-04	-2.982696853373405e-02	5.814773451389210e+02	-4.920098674333673e+00	1.127671556276369e+02	6.282735770857388e+02	
492	8.000000000000000e+00	4.000000000000000e+00	5.053831309051797e-04	-2.956738234195453e-02	5.682535235178882e+02	-8.034806191961046e-01	1.138223504107604e+02	6.129012838700808e+02	
493	9.000000000000000e+00	4.000000000000000e+00	5.615036256297883e-04	-2.927857619003206e-02	5.553372437699624e+02	1.451488780473063e+00	1.138444314044673e+02	5.988586209010458e+02	
494	1.000000000000000e+01	4.000000000000000e+00	6.162900796509235e-04	-2.896146646271076e-02	5.425273203668557e+02	2.448909883339788e+00	1.133648758387652e+02	5.857397628351313e+02	
495	1.100000000000000e+01	4.000000000000000e+00	6.697725941958801e-04	-2.861688595921550e-02	5.296707714509855e+02	2.676843806099834e+00	1.126998406336287e+02	5.731732862668708e+02	
496	1.200000000000000e+01	4.000000000000000e+00	7.219568381765085e-04	-2.824561128578603e-02	5.166796698260936e+02	2.486265889201960e+00	1.120221942176134e+02	5.608838958657328e+02	
497	1.300000000000000e+01	4.000000000000000e+00	7.728343932798378e-04	-2.784838245278572e-02	5.035203272660981e+02	2.107898173960105e+00	1.114162050404805e+02	5.486972817780019e+02	
498	1.400000000000000e+01	4.000000000000000e+00	8.223904625408739e-04	-2.742591631542235e-02	4.901947102950670e+02	1.680761433663566e+00	1.109143537288350e+02	5.365201335313543e+02	
499	1.500000000000000e+01	4.000000000000000e+00	8.706087875229480e-04	-2.697891559674412e-02	4.767237913594875e+02	1.280119224524849e+00	1.105206477619508e+02	5.243147334379062e+02	
500	1.600000000000000e+01	4.000000000000000e+00	9.174743522146856e-04	-2.650807483735492e-02	4.631357535037082e+02	9.401573244932635e-01	1.102248611494592e+02	5.120769953719168e+02	
501	1.700000000000000e+01	4.000000000000000e+00	9.629745816436565e-04	-2.601408422920663e-02	4.494588900668609e+02	6.705736734974828e-01	1.100109409530176e+02	4.998205492460899e+02	
502	1.800000000000000e+01	4.000000000000000e+00	1.007099631195937e-03	-2.549763200342096e-02	4.357180204193594e+02	4.678386463062978e-01	1.098617385063738e+02	4.875665360584616e+02	
503	1.900000000000000e+01	4.000000000000000e+00	1.049842193322421e-03	-2.495940584417308e-02	4.219331780123184e+02	3.223529948266854e-01	1.097614588239187e+02	4.753377737404731e+02	
504	2.000000000000000e+01	4.000000000000000e+00	1.091197095283538e-03	-2.440009366269668e-02	4.081195892166143e+02	2.226947648809752e-01	1.096967257504246e+02	4.631558733998997e+02	
505	2.100000000000000e+01	4.000000000000000e+00	1.131160846951758e-03	-2.382038396657101e-02	3.942882757124543e+02	1.579289513646476e-01	1.096568408288116e+02	4.510401547536960e+02	
506	2.200000000000000e+01	4.000000000000000e+00	1.169731220469949e-03	-2.322096598700227e-02	3.804468707007485e+02	1.187040874080552e-01	1.096336037222833e+02	4.390075427370280e+02	
507	2.300000000000000e+01	4.000000000000000e+00	1.206906895474424e-03	-2.260252967378462e-02	3.666004241884143e+02	9.764172821131112e-02	1.096209222829357e+02	4.270729164436871e+02	
508	2.400000000000000e+01	4.000000000000000e+00	1.242687176356611e-03	-2.196576562926900e-02	3.527520876762057e+02	8.935422127647286e-02	1.096143452125605e+02	4.152495903350370e+02	
509	2.500000000000000e+01	4.000000000000000e+00	1.277071773275091e-03	-2.131136502570971e-02	3.389036369423541e+02	9.030208892875091e-02	1.096105887461112e+02	4.035497497652250e+02	
510	2.600000000000000e+01	4.000000000000000e+00	1.310060632437727e-03	-2.064001953179538e-02	3.250558259899724e+02	9.861720843200761e-02	1.096070882401494e+02	3.919847480566370e+02	
511	2.700000000000000e+01	4.000000000000000e+00	1.341653798437182e-03	-1.995242126160176e-02	3.112085781500248e+02	1.139589098550911e-01	1.096015819628833e+02	3.805652233129725e+02	
512	2.800000000000000e+01	4.000000000000000e+00	1.371851291297462e-03	-1.924926275049039e-02	2.973610245082929e+02	1.374310982134315e-01	1.095917222613427e+02	3.693010246836979e+02	
513	2.900000000000000e+01	4.000000000000000e+00	1.400652981354134e-03	-1.853123695553764e-02	2.835113938609019e+02	1.715579941605476e-01	1.095747071501642e+02	3.582009608825316e+02	
514	3.000000000000000e+01	4.000000000000000e+00	1.428058445655246e-03	-1.779903727127174e-02	2.696567543882082e+02	2.202892389408060e-01	1.095469319121581e+02	3.472724145647051e+02	
515	3.100000000000000e+01	4.000000000000000e+00	1.454066790722386e-03	-1.705335754288986e-02	2.557926018196026e+02	2.889753557148405e-01	1.095036757521174e+02	3.365209104187990e+02	
516	3.200000000000000e+01	4.000000000000000e+00	1.478676427901034e-03	-1.629489204678153e-02	2.419122868548873e+02	3.842150189032587e-01	1.094388678925756e+02	3.259498009007563e+02	
517	3.300000000000000e+01	4.000000000000000e+00	1.501884790578312e-03	-1.552433539003538e-02	2.280062799932568e+02	5.134209114353538e-01	1.093450218111442e+02	3.155603525678407e+02	
518	3.400000000000000e+01	4.000000000000000e+00	1.523687988273520e-03	-1.474238225408224e-02	2.140612853435566e+02	6.838720991123362e-01	1.092134954332143e+02	3.053526990577507e+02	
519	3.500000000000000e+01	4.000000000000000e+00	1.544080403225381e-03	-1.394972687025804e-02	2.000592510716943e+02	9.009077045900415e-01	1.090353340507860e+02	2.953283969058773e+02	
520	3.600000000000000e+01	4.000000000000000e+00	1.563054254718820e-03	-1.314706206440819e-02	1.859763972659250e+02	1.164749451162141e+00	1.088030941363429e+02	2.854957063470053e+02	
521	3.700000000000000e+01	4.000000000000000e+00	1.580599191703057e-03	-1.233507764296341e-02	1.717825305612979e+02	1.465184747551793e+00	1.085142333352966e+02	2.758792374036653e+02	
522	3.800000000000000e+01	4.000000000000000e+00	1.596702039203279e-03	-1.151445781726681e-02	1.574412367525986e+02	1.772934084935831e+00	1.081768885999822e+02	2.665362590045170e+02	
523	3.900000000000000e+01	4.000000000000000e+00	1.611346947911344e-03	-1.068587728966172e-02	1.429122220305154e+02	2.025835428061504e+00	1.078191087906731e+02	2.575826368596224e+02	
524	4.000000000000000e+01	4.000000000000000e+00	1.624516439257272e-03	-9.849995593707084e-03	1.281585407659130e+02	2.106760166775468e+00	1.075027446162214e+02	2.492316428391372e+02	
525	4.100000000000000e+01	4.000000000000000e+00	1.636194328552315e-03	-9.007449385285811e-03	1.131646366365553e+02	1.807997537523263e+00	1.073427404455257e+02	2.418473832334229e+02	
526	4.200000000000000e+01	4.000000000000000e+00	1.646372520467913e-03	-8.158842907469942e-03	9.797769358603500e+01	7.727901610541372e-01	1.075305840009996e+02	2.360086846542814e+02	
527	4.300000000000000e+01	4.000000000000000e+00	1.655065719102552e-03	-7.304738276460894e-03	8.279933960348092e+01	-1.601623683594114e+00	1.083519035147978e+02	2.325598043190319e+02	
528	4.400000000000000e+01	4.000000000000000e+00	1.662342394878295e-03	-6.445652087070628e-03	6.817480042783086e+01	-6.329375753772378e+00	1.101702268743683e+02	2.325957605518607e+02	
529	4.500000000000000e+01	4.000000000000000e+00	1.668387263781986e-03	-5.582073069464209e-03	5.538594073049103e+01	-1.509274578063986e+01	1.132528789942818e+02	2.372174185305708e+02	
530	4.600000000000000e+01	4.000000000000000e+00	1.673626277729891e-03	-4.714559546706264e-03	4.693121098846994e+01	-3.072278097619398e+01	1.172630253483891e+02	2.470477907682557e+02	
531	4.700000000000000e+01	4.000000000000000e+00	1.678913888627643e-03	-3.843974043097379e-03	4.732617214715306e+01	-5.723018341033490e+01	1.192453244533934e+02	2.604031895032088e+02	
532	4.800000000000000e+01	4.000000000000000e+00	1.685819754919646e-03	-2.972352289005561e-03	5.541371799195789e+01	-1.018234262852457e+02	1.110827285502075e+02	2.721782685467128e+02	
533	4.900000000000000e+01	4.000000000000000e+00	1.695398399123225e-03	-2.103593927043942e-03	5.949963049665689e+01	-1.553164660640126e+02	7.938071261640658e+01	2.671163519583124e+02	
534	5.000000000000000e+01	4.000000000000000e+00	1.706325260502618e-03	-1.241718984426788e-03	4.872273691896620e+01	-1.740747070212563e+02	2.934070706970660e+01	2.303957668701791e+02	
535	5.100000000000000e+01	4.000000000000000e+00	1.714862880734078e-03	-3.859272398068938e-04	3.238893077213557e+01	-1.362614311334082e+02	-4.155033830182185e+00	1.688549726700126e+02	
536	1.000000000000000e+00	3.000000000000000e+00	9.918159610732729e-05	-3.067257327245032e-02	9.754303228619428e+02	-4.297668098483294e+01	2.392953975459017e+01	1.019530929876888e+03	
537	2.000000000000000e+00	3.000000000000000e+00	1.976667284613218e-04	-3.061592849452852e-02	9.671372893571959e+02	-3.747582362889056e+01	4.575245442658695e+01	1.008771854845199e+03	
538	3.000000000000000e+00	3.000000000000000e+00	2.948566740984006e-04	-3.052240113507900e-02	9.543286350060614e+02	-2.977803828298768e+01	6.390095993406527e+01	9.923705331850696e+02	
539	4.000000000000000e+00	3.000000000000000e+00	3.903132128892520e-04	-3.039314623737763e-02	9.381969696062118e+02	-2.145831572620637e+01	7.764941056842264e+01	9.721399027469960e+02	
540	5.000000000000000e+00	3.000000000000000e+00	4.837706600212781e-04	-3.022951340161135e-02	9.199189125617557e+02	-1.384298930102230e+01	8.709442288534824e+01	9.498700139289164e+02	
541	6.000000000000000e+00	3.000000000000000e+00	5.751057591336113e-04	-3.003289195154623e-02	9.004341642250846e+02	-7.720410637483788e+00	9.289876340831648e+01	9.269657236462359e+02	
542	7.000000000000000e+00	3.000000000000000e+00	6.642881736166509e-04	-2.980460563556607e-02	8.803643859877379e+02	-3.328755176639328e+00	9.596663728510711e+01	9.042963837305826e+02	
543	8.000000000000000e+00	3.000000000000000e+00	7.513334126279174e-04	-2.954586134331433e-02	8.600484807383867e+02	-5.172442602248157e-01	9.718506860663626e+01	8.822432302277487e+02	
544	9.000000000000000e+00	3.000000000000000e+00	8.362700336043458e-04	-2.925773898970969e-02	8.396328699454036e+02	1.053765215801507e+00	9.728218849261384e+01	8.608543498645696e+02	
545	1.000000000000000e+01	3.000000000000000e+00	9.191226128374376e-04	-2.894120494198847e-02	8.191616133742862e+02	1.758633603717355e+00	9.678630212102348e+01	8.400107049620576e+02	
546	1.100000000000000e+01	3.000000000000000e+00	9.999062107169917e-04	-2.859713470499194e-02	7.986389938044547e+02	1.921113222729462e+00	9.604429990512382e+01	8.195470769978365e+02	
547	1.200000000000000e+01	3.000000000000000e+00	1.078626974778954e-03	-2.822633627939886e-02	7.780619942869213e+02	1.784149518284471e+00	9.526291605726297e+01	7.993168239074993e+02	
548	1.300000000000000e+01	3.000000000000000e+00	1.155284912286379e-03	-2.782957027920989e-02	7.574319100449161e+02	1.511690477597684e+00	9.455134448363185e+01	7.792144796686936e+02	
549	1.400000000000000e+01	3.000000000000000e+00	1.229876708988876e-03	-2.740756568483824e-02	7.367554683010563e+02	1.204037565981459e+00	9.395627715719149e+01	7.591752336090605e+02	
550	1.500000000000000e+01	3.000000000000000e+00	1.302397807063108e-03	-2.696103143167090e-02	7.160424129206585e+02	9.158822307420191e-01	9.348753023594060e+01	7.391654944158714e+02	
551	1.600000000000000e+01	3.000000000000000e+00	1.372843660806959e-03	-2.649066452464082e-02	6.953029249267199e+02	6.720658945731515e-01	9.313537297413828e+01	7.191723167057152e+02	
552	1.700000000000000e+01	3.000000000000000e+00	1.441210354778627e-03	-2.599715546446512e-02	6.745459622029473e+02	4.795226991568757e-01	9.288148980922358e+01	6.991948580060074e+02	
553	1.800000000000000e+01	3.000000000000000e+00	1.507494812089233e-03	-2.548119170217098e-02	6.537785526094924e+02	3.355209064120253e-01	9.270543121254045e+01	6.792385321715230e+02	
554	1.900000000000000e+01	3.000000000000000e+00	1.571694777359788e-03	-2.494345971225211e-02	6.330057374706510e+02	2.329307281169744e-01	9.258805565541877e+01	6.593114720320191e+02	
555	2.000000000000000e+01	3.000000000000000e+00	1.633808698068766e-03	-2.438464614051428e-02	6.122308545731731e+02	1.633448784725609e-01	9.251307421496436e+01	6.394226395950383e+02	
556	2.100000000000000e+01	3.000000000000000e+00	1.693835576972901e-03	-2.380543836198540e-02	5.914559385997961e+02	1.187624824226621e-01	9.246747282929206e+01	6.195809793596096e+02	
557	2.200000000000000e+01	3.000000000000000e+00	1.751774832505900e-03	-2.320652468511453e-02	5.706821120976164e+02	9.237556298525718e-02	9.244132445993034e+01	5.997951661278075e+02	
558	2.300000000000000e+01	3.000000000000000e+00	1.807626182170066e-03	-2.258859436195004e-02	5.499099112024170e+02	7.883645326061561e-02	9.242731043818242e+01	5.800736518918585e+02	
559	2.400000000000000e+01	3.000000000000000e+00	1.861389551874832e-03	-2.195233750776046e-02	5.291395297858544e+02	7.425592094834066e-02	9.242013796968143e+01	5.604248313726721e+02	
560	2.500000000000000e+01	3.000000000000000e+00	1.913065008122724e-03	-2.129844499394366e-02	5.083709859921129e+02	7.608803881259352e-02	9.241595013269276e+01	5.408572220476208e+02	
561	2.600000000000000e+01	3.000000000000000e+00	1.962652707541261e-03	-2.062760835115164e-02	4.876042249233437e+02	8.299468905034235e-02	9.241177045683472e+01	5.213796037485794e+02	
562	2.700000000000000e+01	3.000000000000000e+00	2.010152857503789e-03	-1.994051970153404e-02	4.668391660995777e+02	9.473793459185220e-02	9.240498931896038e+01	5.020010850856882e+02	
563	2.800000000000000e+01	3.000000000000000e+00	2.055565681580709e-03	-1.923787172683893e-02	4.460757046742049e+02	1.121211185399114e-01	9.239288403817105e+01	4.827310824272395e+02	
564	2.900000000000000e+01	3.000000000000000e+00	2.098891383771746e-03	-1.852035766974728e-02	4.253136649888646e+02	1.369775805694742e-01	9.237215916109650e+01	4.635792043090619e+02	
565	3.000000000000000e+01	3.000000000000000e+00	2.140130105265156e-03	-1.778867135694288e-02	4.045526993380244e+02	1.721880181850093e-01	9.233849944767431e+01	4.445550492979327e+02	
566	3.100000000000000e+01	3.000000000000000e+00	2.179281867152092e-03	-1.704350722156040e-02	3.837921130604027e+02	2.216871119466672e-01	9.228614371521272e+01	4.256679468195597e+02	
567	3.200000000000000e+01	3.000000000000000e+00	2.216346491628474e-03	-1.628556028730634e-02	3.630305851194258e+02	2.903947170437000e-01	9.220751726177495e+01	4.069267141531490e+02	
568	3.300000000000000e+01	3.000000000000000e+00	2.251323492627883e-03	-1.551552605403120e-02	3.422657336322679e+02	3.839694396403814e-01	9.209300569060781e+01	3.883395775297500e+02	
569	3.400000000000000e+01	3.000000000000000e+00	2.284211924612504e-03	-1.473410019161595e-02	3.214934536578656e+02	5.082313779972827e-01	9.193102553195800e+01	3.699145397838352e+02	
570	3.500000000000000e+01	3.000000000000000e+00	2.315010174925732e-03	-1.394197790197797e-02	3.007069189123980e+02	6.680219095660433e-01	9.170865180846481e+01	3.516606986582108e+02	
571	3.600000000000000e+01	3.000000000000000e+00	2.343715680822901e-03	-1.313985274322713e-02	2.798950991215501e+02	8.651510526372093e-01	9.141322392448274e+01	3.335913996979099e+02	
572	3.700000000000000e+01	3.000000000000000e+00	2.370324548020901e-03	-1.232841462024634e-02	2.590406085326142e+02	1.094892500041500e+00	9.103558786846517e+01	3.157307483502119e+02	
573	3.800000000000000e+01	3.000000000000000e+00	2.394831047271786e-03	-1.150834652586660e-02	2.381167020669438e+02	1.340159643738543e+00	9.057599257554364e+01	2.981261021213468e+02	
574	3.900000000000000e+01	3.000000000000000e+00	2.417226981553530e-03	-1.068031945985618e-02	2.170833903982536e+02	1.561898195735399e+00	9.005421226791785e+01	2.808710704041640e+02	
575	4.000000000000000e+01	3.000000000000000e+00	2.437500982798218e-03	-9.844984753231589e-03	1.958832559942143e+02	1.683082467802537e+00	8.952630759104999e+01	2.641468273541017e+02	
576	4.100000000000000e+01	3.000000000000000e+00	2.455638004600782e-03	-9.002962798065528e-03	1.744393901369419e+02	1.561390011137976e+00	8.911178290629498e+01	2.482950711118770e+02	
577	4.200000000000000e+01	3.000000000000000e+00	2.471619850709961e-03	-8.154826945498983e-03	1.526632443547367e+02	9.410074761668668e-01	8.903638348881285e+01	2.339434707413409e+02	
578	4.300000000000000e+01	3.000000000000000e+00	2.485429139841067e-03	-7.301081534616711e-03	1.304938871502948e+02	-6.362086857102458e-01	8.969867067980614e+01	2.222127541813411e+02	
579	4.400000000000000e+01	3.000000000000000e+00	2.497063034955363e-03	-6.442133399448322e-03	1.080340521559648e+02	-3.997289659233827e+00	9.175749140579993e+01	2.150087683450507e+02	
580	4.500000000000000e+01	3.000000000000000e+00	2.506574447226847e-03	-5.578265717222279e-03	8.592612086315715e+01	-1.067969128921445e+01	9.624750921139987e+01	2.153764496392614e+02	
581	4.600000000000000e+01	3.000000000000000e+00	2.514181517066060e-03	-4.709622017219805e-03	6.655604025819460e+01	-2.351196048350582e+01	1.043788760273563e+02	2.273588436822808e+02	
582	4.700000000000000e+01	3.000000000000000e+00	2.520584538554611e-03	-3.836397407056552e-03	5.600407255421750e+01	-4.838920422979965e+01	1.170891550186479e+02	2.563931300359434e+02	
583	4.800000000000000e+01	3.000000000000000e+00	2.527572193857868e-03	-2.959146512842650e-03	7.320049856098294e+01	-9.370679053607314e+01	1.269495406863205e+02	3.038466499331518e+02	
584	4.900000000000000e+01	3.000000000000000e+00	2.540135276512538e-03	-2.082806872968303e-03	1.028453169995478e+02	-1.964219121025384e+02	1.096831033169738e+02	3.710558004228048e+02	
585	5.000000000000000e+01	3.000000000000000e+00	2.559218068544802e-03	-1.218518685420772e-03	9.494104222248609e+01	-2.944885739780337e+02	2.465672162374495e+01	3.925394778350422e+02	
586	5.100000000000000e+01	3.000000000000000e+00	2.576070333038685e-03	-3.700111558310597e-04	7.229342293981746e+01	-1.720492834499260e+02	-5.328441156457152e+01	2.665713267195010e+02	
587	1.000000000000000e+00	2.000000000000000e+00	1.312949362337861e-04	-3.063535690216428e-02	1.302467047514246e+03	-2.267360578598910e+01	1.747957760446394e+01	1.325601710002629e+03	
588	2.000000000000000e+00	2.000000000000000e+00	2.618584151766664e-04	-3.057936103456171e-02	1.292701486865739e+03	-1.987799007518899e+01	3.354176788848697e+01	1.314292617364512e+03	
589	3.000000000000000e+00	2.000000000000000e+00	3.910292297209820e-04	-3.048679049157224e-02	1.277288346780966e+03	-1.592007780147048e+01	4.709069875432380e+01	1.296633396549568e+03	
590	4.000000000000000e+00	2.000000000000000e+00	5.182671917211705e-04	-3.035866020502723e-02	1.257308736761079e+03	-1.157446591090128e+01	5.755077159246952e+01	1.274092990039054e+03	
591	5.000000000000000e+00	2.000000000000000e+00	6.431738615653475e-04	-3.019619189211558e-02	1.233936237805186e+03	-7.524169555262548e+00	6.488715058407840e+01	1.248224864472445e+03	
592	6.000000000000000e+00	2.000000000000000e+00	7.654848555683076e-04	-3.000068608421017e-02	1.208250097157844e+03	-4.207273974264853e+00	6.947854794869018e+01	1.220394178662295e+03	
593	7.000000000000000e+00	2.000000000000000e+00	8.850440095882415e-04	-2.977342308725816e-02	1.181123950329592e+03	-1.787992608440415e+00	7.192426035716903e+01	1.191626225650113e+03	
594	8.000000000000000e+00	2.000000000000000e+00	1.001771682580492e-03	-2.951560264951503e-02	1.153193845048157e+03	-2.188514170734202e-01	7.286571611764241e+01	1.162582684676036e+03	
595	9.000000000000000e+00	2.000000000000000e+00	1.115636241446884e-03	-2.922831895171616e-02	1.124881964861467e+03	6.640953200279167e-01	7.286729556352249e+01	1.133624448063493e+03	
596	1.000000000000000e+01	2.000000000000000e+00	1.226632809964021e-03	-2.891256072151117e-02	1.096445399425240e+03	1.058235713626098e+00	7.236258179487687e+01	1.104906517041263e+03	
597	1.100000000000000e+01	2.000000000000000e+00	1.334769482069374e-03	-2.856922535305606e-02	1.068026824635971e+03	1.142455760392203e+00	7.164923562424168e+01	1.076464912764551e+03	
598	1.200000000000000e+01	2.000000000000000e+00	1.440059321109037e-03	-2.819913831801932e-02	1.039695717053868e+03	1.054863219347540e+00	7.091017737993708e+01	1.048278510834939e+03	
599	1.300000000000000e+01	2.000000000000000e+00	1.542516153576069e-03	-2.780307243179921e-02	1.011477661411670e+03	8.901915020652442e-01	7.024345644616298e+01	1.020305643928481e+03	
600	1.400000000000000e+01	2.000000000000000e+00	1.642152588307322e-03	-2.738176429911632e-02	9.833736205671812e+02	7.068033746781612e-01	6.969057272343294e+01	9.925024822726260e+02	
601	1.500000000000000e+01	2.000000000000000e+00	1.738979246886399e-03	-2.693592708982235e-02	9.553720350962184e+02	5.364706269718660e-01	6.925897541251089e+01	9.648306472516654e+02	
602	1.600000000000000e+01	2.000000000000000e+00	1.833004618477729e-03	-2.646625979524439e-02	9.274561636945896e+02	3.934155154949917e-01	6.893802231569306e+01	9.372593785844831e+02	
603	1.700000000000000e+01	2.000000000000000e+00	1.924235217706505e-03	-2.597345354968074e-02	8.996083470556426e+02	2.813317061483573e-01	6.870931526699485e+01	9.097653326849000e+02	
604	1.800000000000000e+01	2.000000000000000e+00	2.012675872111764e-03	-2.545819570832221e-02	8.718122982619510e+02	1.982740044515783e-01	6.855281218253637e+01	8.823315473873124e+02	
605	1.900000000000000e+01	2.000000000000000e+00	2.098330045366222e-03	-2.492117231753540e-02	8.440541502792478e+02	1.397851158445302e-01	6.845004713116930e+01	8.549462506720449e+02	
606	2.000000000000000e+01	2.000000000000000e+00	2.181200146855266e-03	-2.436306949552428e-02	8.163227502469774e+02	1.007361495304728e-01	6.838551794977961e+01	8.276017717225667e+02	
607	2.100000000000000e+01	2.000000000000000e+00	2.261287803389195e-03	-2.378457411400288e-02	7.886095315465582e+02	7.630651897607521e-02	6.834700166722712e+01	8.002936320626319e+02	
608	2.200000000000000e+01	2.000000000000000e+00	2.338594084251408e-03	-2.318637405906071e-02	7.609081829732471e+02	6.242959967225659e-02	6.832530210639733e+01	7.730198238456272e+02	
609	2.300000000000000e+01	2.000000000000000e+00	2.413119679854738e-03	-2.256915825989161e-02	7.332142534636321e+02	5.593257108559513e-02	6.831374167970290e+01	7.457802576517448e+02	
610	2.400000000000000e+01	2.000000000000000e+00	2.484865039191783e-03	-2.193361660764249e-02	7.055247763851137e+02	5.452073538752167e-02	6.830757445784738e+01	7.185763567775850e+02	
611	2.500000000000000e+01	2.000000000000000e+00	2.553830474138920e-03	-2.128043983970403e-02	6.778379588756998e+02	5.669943785629172e-02	6.830340943476185e+01	6.914107741471780e+02	
612	2.600000000000000e+01	2.000000000000000e+00	2.620016239265099e-03	-2.061031943297205e-02	6.501529564775572e+02	6.168724639749623e-02	6.829867791633913e+01	6.642872089322957e+02	
613	2.700000000000000e+01	2.000000000000000e+00	2.683422596230933e-03	-1.992394752844866e-02	6.224697425472644e+02	6.934968772089523e-02	6.829114767812212e+01	6.372103047161858e+02	
614	2.800000000000000e+01	2.000000000000000e+00	2.744049871321251e-03	-1.922201689532309e-02	5.947890710510547e+02	8.016476380408211e-02	6.827847011228668e+01	6.101856120402017e+02	
615	2.900000000000000e+01	2.000000000000000e+00	2.801898514348474e-03	-1.850522093194924e-02	5.671125272518877e+02	9.522010243570467e-02	6.825774311856546e+01	5.832196023708190e+02	
616	3.000000000000000e+01	2.000000000000000e+00	2.856969166393069e-03	-1.777425369114448e-02	5.394426557996657e+02	1.162316615623755e-01	6.822507488332448e+01	5.563197238503542e+02	
617	3.100000000000000e+01	2.000000000000000e+00	2.909262743008593e-03	-1.702980990518818e-02	5.117831456307307e+02	1.455626371070569e-01	6.817514737953695e+01	5.294944940341152e+02	
618	3.200000000000000e+01	2.000000000000000e+00	2.958780537613214e-03	-1.627258496922685e-02	4.841390357436547e+02	1.862079390835554e-01	6.810080067751322e+01	5.027536332556081e+02	
619	3.300000000000000e+01	2.000000000000000e+00	3.005524346403593e-03	-1.550327481733226e-02	4.565168735115611e+02	2.416892605178811e-01	6.799269498516671e+01	4.761082545479621e+02	
620	3.400000000000000e+01	2.000000000000000e+00	3.049496609394070e-03	-1.472257558997058e-02	4.289247100655584e+02	3.157786527569320e-01	6.783916326371701e+01	4.495711560766645e+02	
621	3.500000000000000e+01	2.000000000000000e+00	3.090700550297685e-03	-1.393118294067887e-02	4.013717309591190e+02	4.119249958232496e-01	6.762645215950683e+01	4.231573160478878e+02	
622	3.600000000000000e+01	2.000000000000000e+00	3.129140277408382e-03	-1.312979075790502e-02	3.738671921611345e+02	5.321926138605289e-01	6.733967822211372e+01	3.968848081486547e+02	
623	3.700000000000000e+01	2.000000000000000e+00	3.164820773550257e-03	-1.231908897736104e-02	3.464181284982714e+02	6.754115383568191e-01	6.696502998202092e+01	3.707766002497939e+02	
624	3.800000000000000e+01	2.000000000000000e+00	3.197747648511873e-03	-1.149976001908101e-02	3.190249889535816e+02	8.340400853378647e-01	6.649407721093266e+01	3.448642184370643e+02	
625	3.900000000000000e+01	2.000000000000000e+00	3.227926443200071e-03	-1.067247318123569e-02	2.916738916358328e+02	9.888593028824912e-01	6.593161558873018e+01	3.191953943260597e+02	
626	4.000000000000000e+01	2.000000000000000e+00	3.255361150626951e-03	-9.837876025171850e-03	2.643235308490786e+02	1.099837151557551e+00	6.530951789046406e+01	2.938503793295251e+02	
627	4.100000000000000e+01	2.000000000000000e+00	3.280051449138342e-03	-8.996581317787957e-03	2.368839497671761e+02	1.089840235763577e+00	6.471098457594621e+01	2.689775235756050e+02	
628	4.200000000000000e+01	2.000000000000000e+00	3.301987956654638e-03	-8.149147377024685e-03	2.091837579365102e+02	8.141502874014579e-01	6.431385335660187e+01	2.448733965259221e+02	
629	4.300000000000000e+01	2.000000000000000e+00	3.321144741216288e-03	-7.296048223603104e-03	1.809245067431710e+02	6.523682900083649e-04	6.446809476599059e+01	2.221665637599189e+02	
630	4.400000000000000e+01	2.000000000000000e+00	3.337469052205407e-03	-6.437628708292768e-03	1.516305226150237e+02	-1.876068007584269e+00	6.584866793437720e+01	2.022584031369388e+02	
631	4.500000000000000e+01	2.000000000000000e+00	3.350871382996169e-03	-5.574031313283574e-03	1.206817666097861e+02	-5.858167197854195e+00	6.970882299463150e+01	1.882807341743426e+02	
632	4.600000000000000e+01	2.000000000000000e+00	3.361237655892770e-03	-4.705105431124349e-03	8.764632788993715e+01	-1.417845998041733e+01	7.858070415125559e+01	1.872645072737258e+02	
633	4.700000000000000e+01	2.000000000000000e+00	3.368526394525424e-03	-3.830170121151924e-03	5.523316704272705e+01	-3.129380268078939e+01	9.622557403408135e+01	2.110079640257405e+02	
634	4.800000000000000e+01	2.000000000000000e+00	3.373433895634696e-03	-2.948450373155510e-03	3.529083389578997e+01	-6.997845370011551e+01	1.324037558105584e+02	2.849642804316313e+02	
635	4.900000000000000e+01	2.000000000000000e+00	3.379057642920190e-03	-2.057381545233952e-03	1.272378419288341e+02	-1.369356548402580e+02	1.622923279609515e+02	4.185006992289854e+02	
636	5.000000000000000e+01	2.000000000000000e+00	3.406385896918393e-03	-1.176391496902779e-03	1.976704690416772e+02	-4.618825447265357e+02	1.103594440813763e+02	6.955048566060010e+02	
637	5.100000000000000e+01	2.000000000000000e+00	3.445621002528416e-03	-3.464547920310384e-04	1.076798534129318e+02	-4.975523395215651e+02	-1.055441405772902e+02	6.409869497931259e+02	
638	1.000000000000000e+00	1.000000000000000e+00	1.648447534394316e-04	-3.058989209830720e-02	1.641167914182913e+03	-9.560680278411018e+00	9.639337859304433e+00	1.650841167377928e+03	
639	2.000000000000000e+00	1.000000000000000e+00	3.288151732841019e-04	-3.053438825262668e-02	1.628760485698049e+03	-8.401784593517904e+00	1.851549351747388e+01	1.637581018840601e+03	
640	3.000000000000000e+00	1.000000000000000e+00	4.911052341105460e-04	-3.044257059202506e-02	1.609061255507241e+03	-6.750186710156996e+00	2.602909402119919e+01	1.616649829660996e+03	
641	4.000000000000000e+00	1.000000000000000e+00	6.510306962164351e-04	-3.031537462897675e-02	1.583338964297757e+03	-4.920592520049199e+00	3.185036719437708e+01	1.589536474380114e+03	
642	5.000000000000000e+00	1.000000000000000e+00	8.080583113134629e-04	-3.015394322708460e-02	1.553034470203381e+03	-3.198056418904573e+00	3.593802444803120e+01	1.557891473537900e+03	
643	6.000000000000000e+00	1.000000000000000e+00	9.618092966124707e-04	-2.995951360528070e-02	1.519550013943605e+03	-1.773372101430221e+00	3.848150593230034e+01	1.523268902762346e+03	
644	7.000000000000000e+00	1.000000000000000e+00	1.112042498416923e-03	-2.973332448067179e-02	1.484095476454595e+03	-7.257017759228699e-01	3.980336016347736e+01	1.486953651343268e+03	
645	8.000000000000000e+00	1.000000000000000e+00	1.258626058269663e-03	-2.947655426084324e-02	1.447610012978275e+03	-4.317083535217314e-02	4.026208387193969e+01	1.449890989763223e+03	
646	9.000000000000000e+00	1.000000000000000e+00	1.401506126407253e-03	-2.919029046685351e-02	1.410751462682447e+03	3.397571752480104e-01	4.018177704954525e+01	1.412699359332750e+03	
647	1.000000000000000e+01	1.000000000000000e+00	1.540678645762143e-03	-2.887552363869594e-02	1.373931341386654e+03	5.069210905830559e-01	3.981621447162850e+01	1.375731064563493e+03	
648	1.100000000000000e+01	1.000000000000000e+00	1.676167184453500e-03	-2.853315660143010e-02	1.337370981740711e+03	5.366551020031345e-01	3.934138401026131e+01	1.339147861463752e+03	
649	1.200000000000000e+01	1.000000000000000e+00	1.808007378879884e-03	-2.816402090351573e-02	1.301160008315572e+03	4.905255657458998e-01	3.886527053155803e+01	1.302990076850420e+03	
650	1.300000000000000e+01	1.000000000000000e+00	1.936237141318652e-03	-2.776889466193505e-02	1.265306361098601e+03	4.111402596340810e-01	3.844458600473054e+01	1.267229996675252e+03	
651	1.400000000000000e+01	1.000000000000000e+00	2.060891243450024e-03	-2.734851856266531e-02	1.229773871276172e+03	3.247703287036288e-01	3.810167736728879e+01	1.231808444155723e+03	
652	1.500000000000000e+01	1.000000000000000e+00	2.181998885336007e-03	-2.690360868031628e-02	1.194507664213824e+03	2.455932719078522e-01	3.783836229674866e+01	1.196657369816304e+03	
653	1.600000000000000e+01	1.000000000000000e+00	2.299583107362406e-03	-2.643486596063267e-02	1.159449647492378e+03	1.797817634442147e-01	3.764584793904841e+01	1.161712297023398e+03	
654	1.700000000000000e+01	1.000000000000000e+00	2.413661212949324e-03	-2.594298279463363e-02	1.124546823774939e+03	1.287294639214007e-01	3.751113194233605e+01	1.126918094136571e+03	
655	1.800000000000000e+01	1.000000000000000e+00	2.524245650159993e-03	-2.542864731299925e-02	1.089754883117810e+03	9.130648064802038e-02	3.742072432276142e+01	1.092230723192244e+03	
656	1.900000000000000e+01	1.000000000000000e+00	2.631345017734235e-03	-2.489254602107801e-02	1.055038969245824e+03	6.529609314309504e-02	3.736253833120529e+01	1.057616796447306e+03	
657	2.000000000000000e+01	1.000000000000000e+00	2.734965013625080e-03	-2.433536529661269e-02	1.020372943321818e+03	4.823157454806015e-02	3.732663757799475e+01	1.023052114456377e+03	
658	2.100000000000000e+01	1.000000000000000e+00	2.835109243322910e-03	-2.375779215086874e-02	9.857379968047915e+02	3.783326555944022e-02	3.730533057802774e+01	9.885198850601906e+02	
659	2.200000000000000e+01	1.000000000000000e+00	2.931779864471476e-03	-2.316051454150899e-02	9.511211170448616e+02	3.219966965788679e-02	3.729293491432974e+01	9.540090045340427e+02	
660	2.300000000000000e+01	1.000000000000000e+00	3.024978076588712e-03	-2.254422143425163e-02	9.165136758444290e+02	2.986000702235003e-02	3.728540522990226e+01	9.195125830920020e+02	
661	2.400000000000000e+01	1.000000000000000e+00	3.114704480034123e-03	-2.190960274178353e-02	8.819102654517819e+02	2.975806775084600e-02	3.727993192942151e+01	8.850267807261910e+02	
662	2.500000000000000e+01	1.000000000000000e+00	3.200959333691047e-03	-2.125734921964196e-02	8.473078225152457e+02	3.121007464185332e-02	3.727456128094776e+01	8.505499571827476e+02	
663	2.600000000000000e+01	1.000000000000000e+00	3.283742741144982e-03	-2.058815236549031e-02	8.127050389982636e+02	3.386094230862824e-02	3.726785288021188e+01	8.160821129494618e+02	
664	2.700000000000000e+01	1.000000000000000e+00	3.363054793144145e-03	-1.990270434596488e-02	7.781020449158168e+02	3.765219334918246e-02	3.725857213735496e+01	7.816245927639688e+02	
665	2.800000000000000e+01	1.000000000000000e+00	3.438895692096744e-03	-1.920169796014597e-02	7.435003434602877e+02	4.280607065901876e-02	3.724540530475779e+01	7.471800256743444e+02	
666	2.900000000000000e+01	1.000000000000000e+00	3.511265882482966e-03	-1.848582663731033e-02	7.089029866106996e+02	4.982604772058696e-02	3.722668238243989e+01	7.127524863267309e+02	
667	3.000000000000000e+01	1.000000000000000e+00	3.580166210409272e-03	-1.775578445606737e-02	6.743149860707113e+02	5.950980738202549e-02	3.720009510762203e+01	6.783478720945128e+02	
668	3.100000000000000e+01	1.000000000000000e+00	3.645598135248787e-03	-1.701226615945469e-02	6.397439525465946e+02	7.296521322737792e-02	3.716240390295272e+01	6.439744941311183e+02	
669	3.200000000000000e+01	1.000000000000000e+00	3.707564015981247e-03	-1.625596712348297e-02	6.052009529361136e+02	9.161550641949123e-02	3.710913941970481e+01	6.096438822447803e+02	
670	3.300000000000000e+01	1.000000000000000e+00	3.766067493628140e-03	-1.548758321196111e-02	5.707015458976812e+02	1.171707629425720e-01	3.703432411114073e+01	5.753717874534484e+02	
671	3.400000000000000e+01	1.000000000000000e+00	3.821113986084652e-03	-1.470781041488654e-02	5.362669081725911e+02	1.515318264652183e-01	3.693026728425727e+01	5.411793374857313e+02	
672	3.500000000000000e+01	1.000000000000000e+00	3.872711300932976e-03	-1.391734411709497e-02	5.019248708297515e+02	1.965754007152150e-01	3.678753290282035e+01	5.070942444382806e+02	
673	3.600000000000000e+01	1.000000000000000e+00	3.920870349552810e-03	-1.311687777267840e-02	4.677105281120012e+02	2.537409980620700e-01	3.659524624507965e+01	4.731518741480780e+02	
674	3.700000000000000e+01	1.000000000000000e+00	3.965605905309811e-03	-1.230710066110820e-02	4.336658243463907e+02	3.232944616698292e-01	3.634201425438219e+01	4.393958536526637e+02	
675	3.800000000000000e+01	1.000000000000000e+00	4.006937277591038e-03	-1.148869425979632e-02	3.998370883926930e+02	4.030543807699720e-01	3.601791421158081e+01	4.058777009194386e+02	
676	3.900000000000000e+01	1.000000000000000e+00	4.044888651213419e-03	-1.066232656221312e-02	3.662687407089165e+02	4.861916555181445e-01	3.561832996408778e+01	3.726547127163755e+02	
677	4.000000000000000e+01	1.000000000000000e+00	4.079488631035836e-03	-9.828643354026058e-03	3.329900480257663e+02	5.573336170628522e-01	3.515102955160427e+01	3.397850631256318e+02	
678	4.100000000000000e+01	1.000000000000000e+00	4.110768162636275e-03	-8.988254949138699e-03	2.999892421871758e+02	5.853413367438289e-01	3.464922548169436e+01	3.073190055144336e+02	
679	4.200000000000000e+01	1.000000000000000e+00	4.138755329703445e-03	-8.141715943140799e-03	2.671641332252215e+02	5.091513750088512e-01	3.419589223705339e+01	2.752858796398572e+02	
680	4.300000000000000e+01	1.000000000000000e+00	4.163464242126424e-03	-7.289493995040278e-03	2.342272029455669e+02	2.077868071413418e-01	3.397299115526012e+01	2.436836958885660e+02	
681	4.400000000000000e+01	1.000000000000000e+00	4.184872646984961e-03	-6.431919125523502e-03	2.005182884000527e+02	-5.659203238092889e-01	3.435624389545850e+01	2.125000352388644e+02	
682	4.500000000000000e+01	1.000000000000000e+00	4.202877329408142e-03	-5.569102864263050e-03	1.646122759391352e+02	-2.356629600052474e+00	3.617371625980513e+01	1.819691358696132e+02	
683	4.600000000000000e+01	1.000000000000000e+00	4.217203552473734e-03	-4.700767381936310e-03	1.235075211736200e+02	-6.399317221551445e+00	4.107344999383937e+01	1.537006826250777e+02	
684	4.700000000000000e+01	1.000000000000000e+00	4.227221781578868e-03	-3.826053334853837e-03	7.054155501563498e+01	-1.618889993947840e+01	5.406928274550616e+01	1.386222246365095e+02	
685	4.800000000000000e+01	1.000000000000000e+00	4.231534644906273e-03	-2.942247938525301e-03	-4.794551124775413e+00	-3.921332334718576e+01	8.141810196427454e+01	1.664340145257519e+02	
686	4.900000000000000e+01	1.000000000000000e+00	4.227861666749477e-03	-2.047000835438274e-03	-1.235167432289781e+02	-1.137132989092972e+02	1.804399530408490e+02	3.610130387313791e+02	
687	5.000000000000000e+01	1.000000000000000e+00	4.212902071371713e-03	-1.113550059951512e-03	2.489688036097414e+02	-1.446637717224270e+02	1.890589041504192e+02	5.458201913788688e+02	
688	5.100000000000000e+01	1.000000000000000e+00	4.285624741391163e-03	-2.633569518603461e-04	9.163037870269523e+01	-1.702021296331270e+03	-5.265061053426495e+01	1.796740014167512e+03	
