"PointID"	"x"	"y"	"Displacement_1"	"Displacement_2"	"Sxx"	"Syy"	"Sxy"	"Von_Mises_Stress"
0	0.000000000000000e+00	1.200000000000000e+01	0.000000000000000e+00	-4.227990678649988e-02	-3.649357172929657e+03	-1.545832591619092e+03	5.439721831798402e+02	2.368214223517703e+03	
1	0.000000000000000e+00	0.000000000000000e+00	0.000000000000000e+00	-4.185741408323478e-02	2.767563018640491e+03	7.565004519449340e+01	9.701233935879431e+01	2.698896261911216e+03	
2	5.200000000000000e+01	0.000000000000000e+00	6.576177874348346e-03	0.000000000000000e+00	-7.633880846326726e+02	5.013886812725756e+03	-2.484656173165176e+03	7.620431118712321e+03	
3	5.200000000000000e+01	1.200000000000000e+01	-6.950858469363843e-03	5.652130969200919e-04	2.560801769564246e+00	2.555202141383462e+00	1.199122509597407e+00	2.398251556431998e+00	
4	0.000000000000000e+00	1.100000000000000e+01	0.000000000000000e+00	-4.223483354866060e-02	-2.349881825259652e+03	-1.072227083398298e+03	3.059064131967201e+02	1.416586239499853e+03	
5	0.000000000000000e+00	1.000000000000000e+01	0.000000000000000e+00	-4.220648163977096e-02	-1.754227190460136e+03	-7.437840372716245e+02	1.944688474681008e+02	1.082713210581559e+03	
6	0.000000000000000e+00	9.000000000000000e+00	0.000000000000000e+00	-4.219134566821097e-02	-1.261265210937613e+03	-5.153656241148074e+02	1.494704450313310e+02	8.035744205572302e+02	
7	0.000000000000000e+00	8.000000000000000e+00	0.000000000000000e+00	-4.217909185333822e-02	-8.123333628174191e+02	-3.760241866468923e+02	1.275922516721564e+02	5.054550701671587e+02	
8	0.000000000000000e+00	7.000000000000000e+00	0.000000000000000e+00	-4.216488378277369e-02	-3.795889180269855e+02	-2.791219533251676e+02	1.157633629477097e+02	2.523850942513226e+02	
9	0.000000000000000e+00	6.000000000000000e+00	0.000000000000000e+00	-4.214604320101307e-02	4.711257414277007e+01	-2.058730072822713e+02	1.088238802104147e+02	3.337248148177911e+02	
10	0.000000000000000e+00	5.000000000000000e+00	0.000000000000000e+00	-4.212088168835420e-02	4.733189974038443e+02	-1.475221684044847e+02	1.045309892532717e+02	6.550959197089503e+02	
11	0.000000000000000e+00	4.000000000000000e+00	0.000000000000000e+00	-4.208813892114659e-02	9.030937088632502e+02	-1.000059701844727e+02	1.017847530182177e+02	1.023547512279505e+03	
12	0.000000000000000e+00	3.000000000000000e+00	0.000000000000000e+00	-4.204669524893925e-02	1.340232743606113e+03	-6.168974690714357e+01	9.998930572863651e+01	1.416113736409357e+03	
13	0.000000000000000e+00	2.000000000000000e+00	0.000000000000000e+00	-4.199538947816407e-02	1.788886062194406e+03	-3.250014219855835e+01	9.877871789434624e+01	1.832068952301854e+03	
14	0.000000000000000e+00	1.000000000000000e+00	0.000000000000000e+00	-4.193286762361011e-02	2.254090161811044e+03	-1.369831061372407e+01	9.787898476582789e+01	2.276221812191822e+03	
15	1.000000000000000e+00	0.000000000000000e+00	2.745006012597216e-04	-4.183219493083475e-02	2.759534155867736e+03	7.551365580857363e+01	6.331700869935155e+00	2.684050373312964e+03	
16	2.000000000000000e+00	0.000000000000000e+00	5.474010869172671e-04	-4.175681203573758e-02	2.736115049624380e+03	7.509380541641445e+01	1.216477766363960e+01	2.661132463705731e+03	
17	3.000000000000000e+00	0.000000000000000e+00	8.172355719207872e-04	-4.163205254240817e-02	2.699165047533687e+03	7.436752682237815e+01	1.710603746485535e+01	2.625020474358863e+03	
18	4.000000000000000e+00	0.000000000000000e+00	1.082777450989942e-03	-4.145911678746209e-02	2.651355306481733e+03	7.332059098081550e+01	2.093673378567377e+01	2.578374755851900e+03	
19	5.000000000000000e+00	0.000000000000000e+00	1.343096311526377e-03	-4.123948243399495e-02	2.595675980740245e+03	7.196668296734734e+01	2.362643813159524e+01	2.524151630544512e+03	
20	6.000000000000000e+00	0.000000000000000e+00	1.597563210812055e-03	-4.097476411559318e-02	2.534973677053023e+03	7.035348577133423e+01	2.529726173207860e+01	2.465139446984278e+03	
21	7.000000000000000e+00	0.000000000000000e+00	1.845814658148254e-03	-4.066659511002241e-02	2.471624733513878e+03	6.855378240630625e+01	2.616104783980209e+01	2.403640488457738e+03	
22	8.000000000000000e+00	0.000000000000000e+00	2.087693039678128e-03	-4.031654546760820e-02	2.407383643346389e+03	6.664812714621611e+01	2.645538493741913e+01	2.341333446215989e+03	
23	9.000000000000000e+00	0.000000000000000e+00	2.323181302798498e-03	-3.992607838081827e-02	2.343385290834716e+03	6.470810081841918e+01	2.639620412383642e+01	2.279288655407462e+03	
24	1.000000000000000e+01	0.000000000000000e+00	2.552344828538271e-03	-3.949653778910720e-02	2.280246169730390e+03	6.278614402349957e+01	2.615285453533948e+01	2.218076836543177e+03	
25	1.100000000000000e+01	0.000000000000000e+00	2.775286977327986e-03	-3.902915660004346e-02	2.218205796448948e+03	6.091315648409814e+01	2.584240100228493e+01	2.157911687999479e+03	
26	1.200000000000000e+01	0.000000000000000e+00	2.992119401125213e-03	-3.852507540241502e-02	2.157264468676992e+03	5.910167451724605e+01	2.553591743081255e+01	2.098784277412131e+03	
27	1.300000000000000e+01	0.000000000000000e+00	3.202944963597876e-03	-3.798536415752337e-02	2.097293976806830e+03	5.735146768784755e+01	2.526979597992131e+01	2.040568472476755e+03	
28	1.400000000000000e+01	0.000000000000000e+00	3.407849869609806e-03	-3.741104236422423e-02	2.038114746176138e+03	5.565509765913104e+01	2.505732567409300e+01	1.983092972171987e+03	
29	1.500000000000000e+01	0.000000000000000e+00	3.606901687788353e-03	-3.680309563820108e-02	1.979542925269840e+03	5.400219851085801e+01	2.489819218555890e+01	1.926184510970832e+03	
30	1.600000000000000e+01	0.000000000000000e+00	3.800150645119199e-03	-3.616248824048193e-02	1.921414914734544e+03	5.238221170523370e+01	2.478525963259920e+01	1.869689942576916e+03	
31	1.700000000000000e+01	0.000000000000000e+00	3.987632393226016e-03	-3.549017193755383e-02	1.863597026794741e+03	5.078582658809975e+01	2.470890068726841e+01	1.813484647491490e+03	
32	1.800000000000000e+01	0.000000000000000e+00	4.169371148858686e-03	-3.478709190956233e-02	1.805986460285503e+03	4.920553095778403e+01	2.465946675189826e+01	1.757473069737206e+03	
33	1.900000000000000e+01	0.000000000000000e+00	4.345382621735417e-03	-3.405419046399014e-02	1.748507906375843e+03	4.763563907437685e+01	2.462850016733741e+01	1.701585355413357e+03	
34	2.000000000000000e+01	0.000000000000000e+00	4.515676473749787e-03	-3.329240921584270e-02	1.691108484062702e+03	4.607206310759170e+01	2.460917233017956e+01	1.645772545560262e+03	
35	2.100000000000000e+01	0.000000000000000e+00	4.680258246773567e-03	-3.250269025443506e-02	1.633752522972031e+03	4.451199452460746e+01	2.459629045263255e+01	1.590001687821736e+03	
36	2.200000000000000e+01	0.000000000000000e+00	4.839130796743480e-03	-3.168597667860404e-02	1.576416938785475e+03	4.295358705699784e+01	2.458609406093187e+01	1.534251529306400e+03	
37	2.300000000000000e+01	0.000000000000000e+00	4.992295314973644e-03	-3.084321276604301e-02	1.519087486044994e+03	4.139568423676374e+01	2.457597275228154e+01	1.478509037807391e+03	
38	2.400000000000000e+01	0.000000000000000e+00	5.139752028674513e-03	-2.997534395309764e-02	1.461755924384031e+03	3.983760617436315e+01	2.456417447832375e+01	1.422766775803897e+03	
39	2.500000000000000e+01	0.000000000000000e+00	5.281500667981774e-03	-2.908331673656436e-02	1.404418021175281e+03	3.827899582705371e+01	2.454953635448759e+01	1.367021051600994e+03	
40	2.600000000000000e+01	0.000000000000000e+00	5.417540775991775e-03	-2.816807856384108e-02	1.347072280259250e+03	3.671971953542216e+01	2.453124612015942e+01	1.311270743035291e+03	
41	2.700000000000000e+01	0.000000000000000e+00	5.547871927401308e-03	-2.723057774692225e-02	1.289719295969914e+03	3.515981535530980e+01	2.450863074191029e+01	1.255516699340697e+03	
42	2.800000000000000e+01	0.000000000000000e+00	5.672493912392915e-03	-2.627176341422093e-02	1.232361663301778e+03	3.359948456642010e+01	2.448096132535937e+01	1.199761655928375e+03	
43	2.900000000000000e+01	0.000000000000000e+00	5.791406937720948e-03	-2.529258549768030e-02	1.175004415223118e+03	3.203912418602115e+01	2.444726315802665e+01	1.144010634224694e+03	
44	3.000000000000000e+01	0.000000000000000e+00	5.904611896069746e-03	-2.429399473725837e-02	1.117655997660473e+03	3.047940158550038e+01	2.440612021449398e+01	1.088271834547261e+03	
45	3.100000000000000e+01	0.000000000000000e+00	6.012110757534574e-03	-2.327694266702356e-02	1.060329826338326e+03	2.892137518363437e+01	2.435546767851289e+01	1.032558060516055e+03	
46	3.200000000000000e+01	0.000000000000000e+00	6.113907142855692e-03	-2.224238152330279e-02	1.003046490616653e+03	2.736666772451103e+01	2.429237391451524e+01	9.768887319037173e+02	
47	3.300000000000000e+01	0.000000000000000e+00	6.210007144874072e-03	-2.119126398170001e-02	9.458366698582113e+02	2.581770047689599e+01	2.421282383153967e+01	9.212925416896884e+02	
48	3.400000000000000e+01	0.000000000000000e+00	6.300420470296848e-03	-2.012454258213286e-02	8.887447978077389e+02	2.427799815264284e+01	2.411153414326863e+01	8.658107830357001e+02	
49	3.500000000000000e+01	0.000000000000000e+00	6.385161974601621e-03	-1.904316863400197e-02	8.318334348933564e+02	2.275257475710216e+01	2.398185730425656e+01	8.105012992943737e+02	
50	3.600000000000000e+01	0.000000000000000e+00	6.464253653497139e-03	-1.794809030037133e-02	7.751881660926949e+02	2.124841054882041e+01	2.381587051768224e+01	7.554428752351942e+02	
51	3.700000000000000e+01	0.000000000000000e+00	6.537727126343128e-03	-1.684024943061176e-02	7.189226002470916e+02	1.977502892665202e+01	2.360481038964986e+01	7.007396626261386e+02	
52	3.800000000000000e+01	0.000000000000000e+00	6.605626589350906e-03	-1.572057652907541e-02	6.631826519977826e+02	1.834517948253320e+01	2.334011992008885e+01	6.465248724924600e+02	
53	3.900000000000000e+01	0.000000000000000e+00	6.668012109440746e-03	-1.458998298316785e-02	6.081486210327853e+02	1.697560952776190e+01	2.301556267176043e+01	5.929623883791530e+02	
54	4.000000000000000e+01	0.000000000000000e+00	6.724962940150445e-03	-1.344934927329401e-02	5.540324479474230e+02	1.568789740380091e+01	2.263125910534941e+01	5.402439732702145e+02	
55	4.100000000000000e+01	0.000000000000000e+00	6.776580206982570e-03	-1.229950721866565e-02	5.010651492354429e+02	1.450892119386948e+01	2.220119023237967e+01	4.885780740444467e+02	
56	4.200000000000000e+01	0.000000000000000e+00	6.822987668673366e-03	-1.114121320946845e-02	4.494654894357751e+02	1.347126481037345e+01	2.176819087459774e+01	4.381625046059017e+02	
57	4.300000000000000e+01	0.000000000000000e+00	6.864328093427003e-03	-9.975106862831559e-03	3.993658708718395e+02	1.260540634513993e+01	2.143145020735305e+01	3.891283659062514e+02	
58	4.400000000000000e+01	0.000000000000000e+00	6.900749638417186e-03	-8.801646726045892e-03	3.506668375632074e+02	1.194806835203253e+01	2.142266035804138e+01	3.414178175245065e+02	
59	4.500000000000000e+01	0.000000000000000e+00	6.932372584195037e-03	-7.620995165286995e-03	3.025880705866623e+02	1.136454786922030e+01	2.219303647115553e+01	2.945865978879497e+02	
60	4.600000000000000e+01	0.000000000000000e+00	6.959196504254582e-03	-6.432853032203771e-03	2.531326863159173e+02	1.107807978052293e+01	2.519611665599674e+01	2.472444331490094e+02	
61	4.700000000000000e+01	0.000000000000000e+00	6.980928020757622e-03	-5.235874598171654e-03	1.937317407584345e+02	6.842978732343816e+00	3.199460239513777e+01	1.975399395092967e+02	
62	4.800000000000000e+01	0.000000000000000e+00	6.996106276180865e-03	-4.027808666664743e-03	1.108628661566966e+02	9.317769849085970e+00	6.187916370570890e+01	1.600860087196679e+02	
63	4.900000000000000e+01	0.000000000000000e+00	7.001092845775612e-03	-2.796362206962848e-03	-1.561431710073055e+02	-1.204964001961280e+02	9.542964814228603e+01	1.941596334141231e+02	
64	5.000000000000000e+01	0.000000000000000e+00	6.970634433005117e-03	-1.550401214492428e-03	-9.951508600135791e+02	-4.174534541499854e+01	7.457612690701990e+02	1.770203817939550e+03	
65	5.100000000000000e+01	0.000000000000000e+00	6.803129047451229e-03	0.000000000000000e+00	-3.352391039642964e+03	-4.610386457802626e+03	-6.224991463418878e+02	1.769907687111454e+03	
66	5.200000000000000e+01	1.000000000000000e+00	5.930432954093871e-03	5.243688373649757e-04	1.793704902351296e+03	3.815217989010092e+03	-1.451010733097697e+02	2.042237117828231e+03	
67	5.200000000000000e+01	2.000000000000000e+00	4.730658239800112e-03	6.547855493979877e-04	4.089836799111187e+02	8.234299538330425e+02	-2.645580849594197e+02	6.721083508165543e+02	
68	5.200000000000000e+01	3.000000000000000e+00	3.533572704335085e-03	6.632485176223869e-04	9.797945435883979e+01	-1.882563167851139e+01	-7.320613872807299e+01	1.872965112170765e+02	
69	5.200000000000000e+01	4.000000000000000e+00	2.351280225742813e-03	6.437715043800369e-04	1.844870030834862e+01	-2.011701666827575e+02	-1.178823781788945e+01	2.208807301279621e+02	
70	5.200000000000000e+01	5.000000000000000e+00	1.181060160903160e-03	6.205313613840006e-04	7.070733174850239e-01	-2.104721499355996e+02	1.057895944871611e+01	2.122364762849367e+02	
71	5.200000000000000e+01	6.000000000000000e+00	1.811144763057102e-05	6.002675094163640e-04	-2.965797836616042e+00	-1.722719355839298e+02	1.793608877303365e+01	1.730646740406862e+02	
72	5.200000000000000e+01	7.000000000000000e+00	-1.141060386472634e-03	5.848961620594843e-04	-2.927651058146811e+00	-1.222864118631746e+02	1.919163957709453e+01	1.253785862878516e+02	
73	5.200000000000000e+01	8.000000000000000e+00	-2.299165008964146e-03	5.746319449947488e-04	-2.228215829044460e+00	-7.407128778226300e+01	1.724725620997803e+01	7.969503356399217e+01	
74	5.200000000000000e+01	9.000000000000000e+00	-3.458289916480798e-03	5.688628409282293e-04	-1.921713293614461e+00	-3.487027374023853e+01	1.325203064898110e+01	4.228561103721901e+01	
75	5.200000000000000e+01	1.000000000000000e+01	-4.619871883385720e-03	5.664187810450738e-04	-2.396231147051237e+00	-9.669990785282115e+00	8.005217214793714e+00	1.758526627318663e+01	
76	5.200000000000000e+01	1.100000000000000e+01	-5.784412976638819e-03	5.657150620844196e-04	-2.672700675574200e+00	-2.872319139177282e-02	3.176801171334398e+00	6.881778815512021e+00	
77	5.100000000000000e+01	1.200000000000000e+01	-6.950357595878321e-03	-6.015441666412324e-04	1.077757016689138e-01	-2.545638641275092e+00	3.141588415955222e+00	6.820477899414171e+00	
78	5.000000000000000e+01	1.200000000000000e+01	-6.949671130088864e-03	-1.770200153960859e-03	-8.955818255946530e+00	-1.988118209207939e+00	7.802422398860741e+00	1.708976375209137e+01	
79	4.900000000000000e+01	1.200000000000000e+01	-6.947321221269347e-03	-2.941838775555724e-03	-3.281867530707187e+01	-1.266984649951157e+00	1.285600723962510e+01	4.070155859305404e+01	
80	4.800000000000000e+01	1.200000000000000e+01	-6.941815408468399e-03	-4.116133509010444e-03	-7.008666178955144e+01	-1.432744585593849e+00	1.698261692123336e+01	7.659632796303823e+01	
81	4.700000000000000e+01	1.200000000000000e+01	-6.932019348550171e-03	-5.292075114005802e-03	-1.172117703803040e+02	-2.300139505178487e+00	2.001648228644121e+01	1.216853366797938e+02	
82	4.600000000000000e+01	1.200000000000000e+01	-6.917140124527710e-03	-6.468355479819721e-03	-1.710510594680872e+02	-3.607956914515637e+00	2.208755572192701e+01	1.731722641298046e+02	
83	4.500000000000000e+01	1.200000000000000e+01	-6.896656877014399e-03	-7.643552936472189e-03	-2.291492884613197e+02	-5.175595602458779e+00	2.337622163823965e+01	2.288012369834477e+02	
84	4.400000000000000e+01	1.200000000000000e+01	-6.870257158844136e-03	-8.816230046946852e-03	-2.896593431886081e+02	-6.892520201176689e+00	2.406301861312228e+01	2.868330379184156e+02	
85	4.300000000000000e+01	1.200000000000000e+01	-6.837782969047429e-03	-9.984988368606479e-03	-3.512483921320040e+02	-8.688058617987405e+00	2.431666253867377e+01	3.459953502654526e+02	
86	4.200000000000000e+01	1.200000000000000e+01	-6.799184137995502e-03	-1.114849742641865e-02	-4.130200925645331e+02	-1.051310055910775e+01	2.428550943642699e+01	4.054269631975687e+02	
87	4.100000000000000e+01	1.200000000000000e+01	-6.754478870137354e-03	-1.230550544346210e-02	-4.744357772998160e+02	-1.233306890492804e+01	2.408985537353837e+01	4.646075738013349e+02	
88	4.000000000000000e+01	1.200000000000000e+01	-6.703722503735307e-03	-1.345483724194585e-02	-5.352291104251806e+02	-1.412588788635149e+01	2.381845093425772e+01	5.232760676354147e+02	
89	3.900000000000000e+01	1.200000000000000e+01	-6.646985024186727e-03	-1.459538438346291e-02	-5.953215235299187e+02	-1.588043431840621e+01	2.353020242481725e+01	5.813489980822498e+02	
90	3.800000000000000e+01	1.200000000000000e+01	-6.584336658677989e-03	-1.572609193926297e-02	-6.547486427457743e+02	-1.759409870022895e+01	2.325951571009458e+01	6.388504780323480e+02	
91	3.700000000000000e+01	1.200000000000000e+01	-6.515839965580851e-03	-1.684594505546779e-02	-7.136039509469749e+02	-1.926984551648258e+01	2.302296707954831e+01	6.958592372143563e+02	
92	3.600000000000000e+01	1.200000000000000e+01	-6.441546522729516e-03	-1.795395714027114e-02	-7.720006066149427e+02	-2.091352956259745e+01	2.282554434267602e+01	7.524731352102834e+02	
93	3.500000000000000e+01	1.200000000000000e+01	-6.361496490859421e-03	-1.904916041778132e-02	-8.300487096672180e+02	-2.253190600894687e+01	2.266558392441684e+01	8.087881694047026e+02	
94	3.400000000000000e+01	1.200000000000000e+01	-6.275719726429164e-03	-2.013059889488414e-02	-8.878439104284082e+02	-2.413140193687856e+01	2.253823307014905e+01	8.648879610241017e+02	
95	3.300000000000000e+01	1.200000000000000e+01	-6.184237546096862e-03	-2.119732342751279e-02	-9.454634006147603e+02	-2.571750561995245e+01	2.243763217856169e+01	9.208399973453162e+02	
96	3.200000000000000e+01	1.200000000000000e+01	-6.087064601312456e-03	-2.224838844503900e-02	-1.002966164911647e+03	-2.729457368548912e+01	2.235814185482855e+01	9.766957560850692e+02	
97	3.100000000000000e+01	1.200000000000000e+01	-5.984210578321663e-03	-2.328284989547560e-02	-1.060395323086906e+03	-2.886587861200422e+01	2.229492682677036e+01	1.032492735987786e+03	
98	3.000000000000000e+01	1.200000000000000e+01	-5.875681604871207e-03	-2.429976403824008e-02	-1.117781210371527e+03	-3.043377013425655e+01	2.224414390764096e+01	1.088257167926442e+03	
99	2.900000000000000e+01	1.200000000000000e+01	-5.761481342215716e-03	-2.529818679283196e-02	-1.175144433353083e+03	-3.199987012590180e+01	2.220290958276085e+01	1.144006717293052e+03	
100	2.800000000000000e+01	1.200000000000000e+01	-5.641611791409264e-03	-2.627717342914585e-02	-1.232498523587147e+03	-3.356525796618777e+01	2.216915951314073e+01	1.199752833689763e+03	
101	2.700000000000000e+01	1.200000000000000e+01	-5.516073864886436e-03	-2.723577844916860e-02	-1.289852043969828e+03	-3.513062380891397e+01	2.214146512733036e+01	1.255502616533538e+03	
102	2.600000000000000e+01	1.200000000000000e+01	-5.384867780307508e-03	-2.817305555918122e-02	-1.347210120752273e+03	-3.669638405352956e+01	2.211884064491463e+01	1.311260167366494e+03	
103	2.500000000000000e+01	1.200000000000000e+01	-5.247993332368586e-03	-2.908805766744670e-02	-1.404575423623034e+03	-3.826275630722693e+01	2.210055295591012e+01	1.367027447651093e+03	
104	2.400000000000000e+01	1.200000000000000e+01	-5.105450094998280e-03	-2.997983686808956e-02	-1.461948619652720e+03	-3.982979455071150e+01	2.208593414448892e+01	1.422804662157690e+03	
105	2.300000000000000e+01	1.200000000000000e+01	-4.957237604463847e-03	-3.084744439093135e-02	-1.519328306282611e+03	-4.139738460369551e+01	2.207418770218395e+01	1.478590169149495e+03	
106	2.200000000000000e+01	1.200000000000000e+01	-4.803355574607855e-03	-3.168993051257407e-02	-1.576710393578044e+03	-4.296519675111535e+01	2.206417832485442e+01	1.534379887984158e+03	
107	2.100000000000000e+01	1.200000000000000e+01	-4.643804200591004e-03	-3.250634443995152e-02	-1.634086865019420e+03	-4.453259071716658e+01	2.205419188682610e+01	1.590166136122791e+03	
108	2.000000000000000e+01	1.200000000000000e+01	-4.478584616167334e-03	-3.329573419714332e-02	-1.691443804716880e+03	-4.609846263550843e+01	2.204165688916061e+01	1.645935792569850e+03	
109	1.900000000000000e+01	1.200000000000000e+01	-4.307699582569270e-03	-3.405714657362412e-02	-1.748758547070416e+03	-4.766102340834716e+01	2.202282264922380e+01	1.701667653767615e+03	
110	1.800000000000000e+01	1.200000000000000e+01	-4.131154502285312e-03	-3.478962723162420e-02	-1.805995785888164e+03	-4.921749072572518e+01	2.199240013704938e+01	1.757328836902473e+03	
111	1.700000000000000e+01	1.200000000000000e+01	-3.948958867181294e-03	-3.549222112736244e-02	-1.863102487075080e+03	-5.076367617874762e+01	2.194318759354449e+01	1.812870094465733e+03	
112	1.600000000000000e+01	1.200000000000000e+01	-3.761128264302429e-03	-3.616397348182424e-02	-1.920001494151366e+03	-5.229344196368063e+01	2.186572503893508e+01	1.868219957053406e+03	
113	1.500000000000000e+01	1.200000000000000e+01	-3.567687069503240e-03	-3.680393164983597e-02	-1.976583809124249e+03	-5.379799292734047e+01	2.174805641950169e+01	1.923277724822943e+03	
114	1.400000000000000e+01	1.200000000000000e+01	-3.368671953635028e-03	-3.741114839305247e-02	-2.032699683257592e+03	-5.526495039730573e+01	2.157572365954398e+01	1.977905500808359e+03	
115	1.300000000000000e+01	1.200000000000000e+01	-3.164136301269352e-03	-3.798468728107542e-02	-2.088148868973812e+03	-5.667711797760705e+01	2.133218307102834e+01	2.031919713776578e+03	
116	1.200000000000000e+01	1.200000000000000e+01	-2.954155591255447e-03	-3.852363125790904e-02	-2.142670642009797e+03	-5.801076387323749e+01	2.099994169338313e+01	2.085082923462958e+03	
117	1.100000000000000e+01	1.200000000000000e+01	-2.738833706778819e-03	-3.902709588458441e-02	-2.195934493211524e+03	-5.923310713540868e+01	2.056288440034594e+01	2.137097129781199e+03	
118	1.000000000000000e+01	1.200000000000000e+01	-2.518310025759956e-03	-3.949424953162507e-02	-2.247532522710464e+03	-6.029823143339242e+01	2.001072038034468e+01	2.187600411560318e+03	
119	9.000000000000000e+00	1.200000000000000e+01	-2.292767006336267e-03	-3.992434419783032e-02	-2.296975045559332e+03	-6.114067875456074e+01	1.934703628481800e+01	2.236169167804019e+03	
120	8.000000000000000e+00	1.200000000000000e+01	-2.062437771687054e-03	-4.031676313357762e-02	-2.343688192104628e+03	-6.166049771951224e+01	1.860699296638563e+01	2.282331106279204e+03	
121	7.000000000000000e+00	1.200000000000000e+01	-1.827613278593596e-03	-4.067109823047695e-02	-2.387025403906657e+03	-6.171266304774277e+01	1.788659947537783e+01	2.325587896546584e+03	
122	6.000000000000000e+00	1.200000000000000e+01	-1.588646968465653e-03	-4.098727818386452e-02	-2.426235257286977e+03	-6.098403518633857e+01	1.747734049464658e+01	2.365509495514999e+03	
123	5.000000000000000e+00	1.200000000000000e+01	-1.345960984443856e-03	-4.126583792072625e-02	-2.460821580994161e+03	-5.936629006408700e+01	1.792860226692174e+01	2.401722976001401e+03	
124	4.000000000000000e+00	1.200000000000000e+01	-1.100001175290670e-03	-4.150834496253761e-02	-2.490098689231840e+03	-5.460960507599003e+01	2.267362437131810e+01	2.435911215954068e+03	
125	3.000000000000000e+00	1.200000000000000e+01	-8.511914165889235e-04	-4.171956339616814e-02	-2.531512064962652e+03	-6.153966257088864e+01	3.526039462549571e+01	2.470978925505744e+03	
126	2.000000000000000e+00	1.200000000000000e+01	-5.973781139232666e-04	-4.190763965789272e-02	-2.682293764572675e+03	-6.303981010262301e+01	1.637330286034992e+02	2.639644918664195e+03	
127	1.000000000000000e+00	1.200000000000000e+01	-3.185136365540998e-04	-4.213845937659915e-02	-3.227049084631894e+03	-7.998086148266041e+02	2.706773375208629e+02	2.486877798053242e+03	
128	1.000000000000000e+00	1.100000000000000e+01	-2.028012883727865e-04	-4.215529325110699e-02	-2.337093726338289e+03	-6.138657525156434e+02	1.684274434694510e+02	1.755843348542096e+03	
129	2.000000000000000e+00	1.100000000000000e+01	-4.305641025584540e-04	-4.198179085103430e-02	-2.323982871320507e+03	-1.137092064628085e+02	1.692374966461559e+02	2.236040025278553e+03	
130	3.000000000000000e+00	1.100000000000000e+01	-6.607742775095562e-04	-4.178934219511956e-02	-2.256687152806656e+03	-4.683639600057911e+01	9.543911995313850e+01	2.218079094582993e+03	
131	4.000000000000000e+00	1.100000000000000e+01	-8.791043884751779e-04	-4.157756819884331e-02	-2.151144322198550e+03	-1.437849341155880e+01	5.646935795400368e+01	2.139748433957297e+03	
132	5.000000000000000e+00	1.100000000000000e+01	-1.090169568255765e-03	-4.133369880430107e-02	-2.085065183530429e+03	-4.214223125958139e+00	4.532981705312187e+01	2.082824977926010e+03	
133	6.000000000000000e+00	1.100000000000000e+01	-1.295911896953219e-03	-4.105392923592610e-02	-2.034473814629892e+03	-4.306312875395371e-01	4.191457215238624e+01	2.035769878236821e+03	
134	7.000000000000000e+00	1.100000000000000e+01	-1.497106836541391e-03	-4.073648792997775e-02	-1.989738963050658e+03	9.428726506456933e-01	4.166871120103986e+01	1.992425480906058e+03	
135	8.000000000000000e+00	1.100000000000000e+01	-1.694008545187041e-03	-4.038084419920877e-02	-1.946755155166512e+03	1.371137719387580e+00	4.253524998195687e+01	1.949982831462233e+03	
136	9.000000000000000e+00	1.100000000000000e+01	-1.886659158457209e-03	-3.998706074934927e-02	-1.903874113464662e+03	1.394459994289331e+00	4.374412037780944e+01	1.907276206866961e+03	
137	1.000000000000000e+01	1.100000000000000e+01	-2.075015396493517e-03	-3.955555073666945e-02	-1.860453783701891e+03	1.248601578837452e+00	4.495310017966616e+01	1.863872017125372e+03	
138	1.100000000000000e+01	1.100000000000000e+01	-2.259004899065038e-03	-3.908693827531171e-02	-1.816298943727644e+03	1.043549065743807e+00	4.602199095324509e+01	1.819671901942129e+03	
139	1.200000000000000e+01	1.100000000000000e+01	-2.438551700524258e-03	-3.858197964540082e-02	-1.771414119322828e+03	8.328752955629817e-01	4.690354251599179e+01	1.774727916931527e+03	
140	1.300000000000000e+01	1.100000000000000e+01	-2.613587319655899e-03	-3.804151424727981e-02	-1.725887879264079e+03	6.419131706792136e-01	4.759613591132162e+01	1.729152015520777e+03	
141	1.400000000000000e+01	1.100000000000000e+01	-2.784054789449146e-03	-3.746643327450996e-02	-1.679836082800038e+03	4.810064598483610e-01	4.811932895125498e+01	1.683070824336781e+03	
142	1.500000000000000e+01	1.100000000000000e+01	-2.949909194344715e-03	-3.685765934162350e-02	-1.633374143706632e+03	3.523603266960418e-01	4.850094981040490e+01	1.636603696229178e+03	
143	1.600000000000000e+01	1.100000000000000e+01	-3.111116565194940e-03	-3.621613327019022e-02	-1.586604399919433e+03	2.538967279115560e-01	4.877013056152443e+01	1.589853249887695e+03	
144	1.700000000000000e+01	1.100000000000000e+01	-3.267652122118607e-03	-3.554280565073422e-02	-1.539611550918941e+03	1.815263576767556e-01	4.895371843647612e+01	1.542902649885607e+03	
145	1.800000000000000e+01	1.100000000000000e+01	-3.419498393041302e-03	-3.483863161139534e-02	-1.492462345081481e+03	1.304981061735138e-01	4.907466230243791e+01	1.495816394299581e+03	
146	1.900000000000000e+01	1.100000000000000e+01	-3.566643474426816e-03	-3.410456772028475e-02	-1.445207352751155e+03	9.617328830172944e-02	4.915155709371030e+01	1.448642738787252e+03	
147	2.000000000000000e+01	1.100000000000000e+01	-3.709079550281070e-03	-3.334157027771461e-02	-1.397883583929145e+03	7.443069013616999e-02	4.919883750683982e+01	1.401416680750725e+03	
148	2.100000000000000e+01	1.100000000000000e+01	-3.846801699960889e-03	-3.255059448334102e-02	-1.350517249624213e+03	6.183860331456081e-02	4.922729975367631e+01	1.354162908117651e+03	
149	2.200000000000000e+01	1.100000000000000e+01	-3.979806979175423e-03	-3.173259412655675e-02	-1.303126296624961e+03	5.568610213558323e-02	4.924475206859903e+01	1.306898413240187e+03	
150	2.300000000000000e+01	1.100000000000000e+01	-4.108093736135310e-03	-3.088852156527755e-02	-1.255722544058991e+03	5.393839957399749e-02	4.925667725858622e+01	1.259634651362939e+03	
151	2.400000000000000e+01	1.100000000000000e+01	-4.231661116758897e-03	-3.001932784112761e-02	-1.208313365402522e+03	5.515977676232353e-02	4.926684774462329e+01	1.212379223589190e+03	
152	2.500000000000000e+01	1.100000000000000e+01	-4.350508712239543e-03	-2.912596283659830e-02	-1.160902920441280e+03	5.843274187236247e-02	4.927787003070972e+01	1.165137115314721e+03	
153	2.600000000000000e+01	1.100000000000000e+01	-4.464636305640032e-03	-2.820937541917027e-02	-1.113492970519509e+03	6.329004053430332e-02	4.929166047911030e+01	1.117911542387688e+03	
154	2.700000000000000e+01	1.100000000000000e+01	-4.574043678231094e-03	-2.727051354402325e-02	-1.066083314215811e+03	6.966828485752607e-02	4.930986654217300e+01	1.070704456817426e+03	
155	2.800000000000000e+01	1.100000000000000e+01	-4.678730440329706e-03	-2.631032430574809e-02	-1.018671875793860e+03	7.788553906897810e-02	4.933425429251540e+01	1.023516756483397e+03	
156	2.900000000000000e+01	1.100000000000000e+01	-4.778695853849523e-03	-2.532975394433531e-02	-9.712544689447254e+02	8.863882575499815e-02	4.936708155426105e+01	9.763482308981542e+02	
157	3.000000000000000e+01	1.100000000000000e+01	-4.873938615634427e-03	-2.432974782562040e-02	-9.238242536049851e+02	1.030110515679503e-01	4.941146981912263e+01	9.291972684928021e+02	
158	3.100000000000000e+01	1.100000000000000e+01	-4.964456571520150e-03	-2.331125043470798e-02	-8.763709050957824e+02	1.224685592332744e-01	4.947177211986818e+01	8.820603488468754e+02	
159	3.200000000000000e+01	1.100000000000000e+01	-5.050246333083483e-03	-2.227520544659082e-02	-8.288795419735512e+02	1.488154248152682e-01	4.955390800488755e+01	8.349313603912967e+02	
160	3.300000000000000e+01	1.100000000000000e+01	-5.131302773976112e-03	-2.122255597505789e-02	-7.813295113602115e+02	1.840541197578869e-01	4.966559496424713e+01	7.878008240169752e+02	
161	3.400000000000000e+01	1.100000000000000e+01	-5.207618394646737e-03	-2.015424515236092e-02	-7.336932339774977e+02	2.300735219611387e-01	4.981634073382235e+01	7.406551778711726e+02	
162	3.500000000000000e+01	1.100000000000000e+01	-5.279182567923577e-03	-1.907121726101023e-02	-6.859354757155396e+02	2.880555692878777e-01	5.001697102719289e+01	6.934764051155300e+02	
163	3.600000000000000e+01	1.100000000000000e+01	-5.345980721000124e-03	-1.797441972429921e-02	-6.380136618269826e+02	3.574586916747680e-01	5.027834463394355e+01	6.462424740519341e+02	
164	3.700000000000000e+01	1.100000000000000e+01	-5.407993581133713e-03	-1.686480635684433e-02	-5.898801934763371e+02	4.344210815822978e-01	5.060877012458784e+01	5.989293235555915e+02	
165	3.800000000000000e+01	1.100000000000000e+01	-5.465196722941820e-03	-1.574334235982732e-02	-5.414881419482938e+02	5.094665149722148e-01	5.100951506162241e+01	5.515154486387370e+02	
166	3.900000000000000e+01	1.100000000000000e+01	-5.517560813305935e-03	-1.461101157583201e-02	-4.928021389939594e+02	5.645455540154629e-01	5.146777780053358e+01	5.039904900181762e+02	
167	4.000000000000000e+01	1.100000000000000e+01	-5.565053157352428e-03	-1.346882642100621e-02	-4.438165696489829e+02	5.698055684886354e-01	5.194672488058179e+01	4.563694768301215e+02	
168	4.100000000000000e+01	1.100000000000000e+01	-5.607641387792885e-03	-1.231784057748106e-02	-3.945830451327165e+02	4.811070797204007e-01	5.237290423652100e+01	4.087142874380619e+02	
169	4.200000000000000e+01	1.100000000000000e+01	-5.645300358285902e-03	-1.115916382519572e-02	-3.452480989573354e+02	2.401268345372998e-01	5.262271991917060e+01	3.611630058125859e+02	
170	4.300000000000000e+01	1.100000000000000e+01	-5.678023383622253e-03	-9.993977232725559e-03	-2.960996400204924e+02	-2.206685440543950e-01	5.251159917237918e+01	3.139653451457936e+02	
171	4.400000000000000e+01	1.100000000000000e+01	-5.705838732307348e-03	-8.823545391983576e-03	-2.476166704529071e+02	-9.669267591494788e-01	5.179108632775485e+01	2.675170322731473e+02	
172	4.500000000000000e+01	1.100000000000000e+01	-5.728831491140637e-03	-7.649220861354837e-03	-2.005119689139869e+02	-2.047674199323413e+00	5.015856794380304e+01	2.223771661598404e+02	
173	4.600000000000000e+01	1.100000000000000e+01	-5.747169498878123e-03	-6.472435077203735e-03	-1.557534841275049e+02	-3.484357623849830e+00	4.727998584160783e+01	1.792413878849320e+02	
174	4.700000000000000e+01	1.100000000000000e+01	-5.761130172512706e-03	-5.294669857219238e-03	-1.145476228378699e+02	-5.270015013485620e+00	4.282067837843629e+01	1.388381703962489e+02	
175	4.800000000000000e+01	1.100000000000000e+01	-5.771123183887884e-03	-4.117402392999656e-03	-7.826022916688430e+01	-7.363080131979761e+00	3.648627883746950e+01	1.017418297206206e+02	
176	4.900000000000000e+01	1.100000000000000e+01	-5.777701907815745e-03	-2.942008714775137e-03	-4.822691185363060e+01	-9.599567392579427e+00	2.812430735591264e+01	6.823473013877953e+01	
177	5.000000000000000e+01	1.100000000000000e+01	-5.781553513373218e-03	-1.769585393986597e-03	-2.543088231749498e+01	-1.133777803848387e+01	1.805892875247149e+01	3.877002990670044e+01	
178	5.100000000000000e+01	1.100000000000000e+01	-5.783467380235553e-03	-6.006045994050101e-04	-1.064983515498383e+01	-1.048373131419526e+01	8.055414882750984e+00	1.611168601416093e+01	
179	1.000000000000000e+00	1.000000000000000e+01	-1.530985158259335e-04	-4.215591718829539e-02	-1.760348182544712e+03	-5.421856556139160e+02	1.730821858411253e+02	1.266392401367202e+03	
180	2.000000000000000e+00	1.000000000000000e+01	-3.195219327728256e-04	-4.202431719925676e-02	-1.785737493902328e+03	-2.256008274931569e+02	2.085548231075239e+02	1.614932467578742e+03	
181	3.000000000000000e+00	1.000000000000000e+01	-4.967055041510944e-04	-4.184556813217583e-02	-1.795320490961345e+03	-7.921432229498717e+01	1.613997313631434e+02	1.746201556313333e+03	
182	4.000000000000000e+00	1.000000000000000e+01	-6.738440079725719e-04	-4.163449589351503e-02	-1.756428619477129e+03	-3.311667611216220e+01	1.180201876958101e+02	1.739401941173850e+03	
183	5.000000000000000e+00	1.000000000000000e+01	-8.460317297915338e-04	-4.139003947062805e-02	-1.701140924612322e+03	-1.219881781275065e+01	9.533081764861542e+01	1.699669761834571e+03	
184	6.000000000000000e+00	1.000000000000000e+01	-1.013386474867472e-03	-4.110917981543407e-02	-1.652315786990723e+03	-3.249771915771600e+00	8.614235037921750e+01	1.658041235974125e+03	
185	7.000000000000000e+00	1.000000000000000e+01	-1.176367127864992e-03	-4.079056596161632e-02	-1.609003257549647e+03	6.299061843471740e-01	8.314500278778604e+01	1.618200014753007e+03	
186	8.000000000000000e+00	1.000000000000000e+01	-1.335315690266346e-03	-4.043370997621417e-02	-1.569043404301457e+03	2.153180932375616e+00	8.301886235788453e+01	1.579945326737367e+03	
187	9.000000000000000e+00	1.000000000000000e+01	-1.490421852871652e-03	-4.003869263413436e-02	-1.530814294525210e+03	2.567090700874392e+00	8.408945313730024e+01	1.542576616273431e+03	
188	1.000000000000000e+01	1.000000000000000e+01	-1.641777953003629e-03	-3.960593096774958e-02	-1.493375803219146e+03	2.463443213743911e+00	8.555130412974901e+01	1.505593289611149e+03	
189	1.100000000000000e+01	1.000000000000000e+01	-1.789421002822994e-03	-3.913605228933151e-02	-1.456218908470239e+03	2.140257546516285e+00	8.701586885459172e+01	1.468706404573482e+03	
190	1.200000000000000e+01	1.000000000000000e+01	-1.933359222131204e-03	-3.862981584928937e-02	-1.419087098523826e+03	1.750636905778791e+00	8.831084962661198e+01	1.431773409121647e+03	
191	1.300000000000000e+01	1.000000000000000e+01	-2.073587297351708e-03	-3.808806390500406e-02	-1.381864712287078e+03	1.371935094413125e+00	8.937609851193169e+01	1.394738674662765e+03	
192	1.400000000000000e+01	1.000000000000000e+01	-2.210094742346649e-03	-3.751169014766675e-02	-1.344511853772254e+03	1.040022602545463e+00	9.020894234266177e+01	1.357593630336439e+03	
193	1.500000000000000e+01	1.000000000000000e+01	-2.342870202303126e-03	-3.690161921682797e-02	-1.307027027649191e+03	7.677022551379906e-01	9.083400289467235e+01	1.320352346872990e+03	
194	1.600000000000000e+01	1.000000000000000e+01	-2.471903450193750e-03	-3.625879347249283e-02	-1.269426119178474e+03	5.552174788471813e-01	9.128643374092857e+01	1.283037586120712e+03	
195	1.700000000000000e+01	1.000000000000000e+01	-2.597186119231623e-03	-3.558416461083822e-02	-1.231730942087322e+03	3.964756955103610e-01	9.160279490182890e+01	1.245673416986770e+03	
196	1.800000000000000e+01	1.000000000000000e+01	-2.718711783368287e-03	-3.487868851568938e-02	-1.193963356593682e+03	2.827594198688619e-01	9.181642438042431e+01	1.208281758844962e+03	
197	1.900000000000000e+01	1.000000000000000e+01	-2.836475736417122e-03	-3.414332224804258e-02	-1.156142575962227e+03	2.048827199308807e-01	9.195546365564914e+01	1.170881152972062e+03	
198	2.000000000000000e+01	1.000000000000000e+01	-2.950474663196532e-03	-3.337902241609787e-02	-1.118284237349042e+03	1.543619217046519e-01	9.204241061252196e+01	1.133486709998916e+03	
199	2.100000000000000e+01	1.000000000000000e+01	-3.060706302865136e-03	-3.258674440534159e-02	-1.080400390801958e+03	1.239666758977336e-01	9.209449771864088e+01	1.096110611728181e+03	
200	2.200000000000000e+01	1.000000000000000e+01	-3.167169150552718e-03	-3.176744211622367e-02	-1.042499909638908e+03	1.078962011089928e-01	9.212446188034605e+01	1.058762817020653e+03	
201	2.300000000000000e+01	1.000000000000000e+01	-3.269862212964378e-03	-3.092206797642599e-02	-1.004589040117493e+03	1.017478020735858e-01	9.214144900032765e+01	1.021451793197290e+03	
202	2.400000000000000e+01	1.000000000000000e+01	-3.368784817719933e-03	-3.005157307833134e-02	-9.666719380146576e+02	1.023882694881628e-01	9.215191308817090e+01	9.841851951261018e+02	
203	2.500000000000000e+01	1.000000000000000e+01	-3.463936468280100e-03	-2.915690735004819e-02	-9.287511159585065e+02	1.078000510477501e-01	9.216044536844953e+01	9.469704729359242e+02	
204	2.600000000000000e+01	1.000000000000000e+01	-3.555316733212496e-03	-2.823901970719434e-02	-8.908277676792809e+02	1.169448485774289e-01	9.217051748145450e+01	9.098154197157489e+02	
205	2.700000000000000e+01	1.000000000000000e+01	-3.642925157611018e-03	-2.729885815865926e-02	-8.529019599047444e+02	1.296670537930655e-01	9.218514943542131e+01	8.727286884807061e+02	
206	2.800000000000000e+01	1.000000000000000e+01	-3.726761184734238e-03	-2.633736985751731e-02	-8.149726939656126e+02	1.466436394884187e-01	9.220752621940423e+01	8.357203157179961e+02	
207	2.900000000000000e+01	1.000000000000000e+01	-3.806824076520562e-03	-2.535550110243813e-02	-7.770378461173922e+02	1.693725419850391e-01	9.224158702252043e+01	7.988022923364566e+02	
208	3.000000000000000e+01	1.000000000000000e+01	-3.883112822395199e-03	-2.435419730880708e-02	-7.390940019995885e+02	2.001771276580353e-01	9.229260053532539e+01	7.619892254787609e+02	
209	3.100000000000000e+01	1.000000000000000e+01	-3.955626026605224e-03	-2.333440298626418e-02	-7.011362102348264e+02	2.421835103788981e-01	9.236771454443527e+01	7.252991313749476e+02	
210	3.200000000000000e+01	1.000000000000000e+01	-4.024361765955051e-03	-2.229706178386001e-02	-6.631576974618181e+02	2.991996403279202e-01	9.247642638792922e+01	6.887543916827942e+02	
211	3.300000000000000e+01	1.000000000000000e+01	-4.089317412355329e-03	-2.124311669954593e-02	-6.251496155608436e+02	3.753833525140653e-01	9.263085376197424e+01	6.523828818571538e+02	
212	3.400000000000000e+01	1.000000000000000e+01	-4.150489419334319e-03	-2.017351060086181e-02	-5.871009357721720e+02	4.745327619136859e-01	9.284558498415920e+01	6.162192319517894e+02	
213	3.500000000000000e+01	1.000000000000000e+01	-4.207873079900247e-03	-1.908918727145340e-02	-5.489986708741363e+02	5.987628787027108e-01	9.313674717331797e+01	5.803060863749513e+02	
214	3.600000000000000e+01	1.000000000000000e+01	-4.261462276992071e-03	-1.799109328394903e-02	-5.108286975183070e+02	7.462652291511622e-01	9.351974513870849e+01	5.446950646309357e+02	
215	3.700000000000000e+01	1.000000000000000e+01	-4.311249270334938e-03	-1.688018109887199e-02	-4.725775879875372e+02	9.078062601011165e-01	9.400490599941730e+01	5.094468647206287e+02	
216	3.800000000000000e+01	1.000000000000000e+01	-4.357224602106875e-03	-1.575741388607550e-02	-4.342360500418000e+02	1.061682729300981e+00	9.459005874002393e+01	4.746295745161963e+02	
217	3.900000000000000e+01	1.000000000000000e+01	-4.399377268911701e-03	-1.462377262564800e-02	-3.958048613280258e+02	1.167136936021144e+00	9.524899434319215e+01	4.403138097985438e+02	
218	4.000000000000000e+01	1.000000000000000e+01	-4.437695420218025e-03	-1.348026600633069e-02	-3.573045932722845e+02	1.156936225851736e+00	9.591499950345990e+01	4.065629307366058e+02	
219	4.100000000000000e+01	1.000000000000000e+01	-4.472168032931843e-03	-1.232794339610210e-02	-3.187908933382260e+02	9.311570139593897e-01	9.645959763176526e+01	3.734166645752886e+02	
220	4.200000000000000e+01	1.000000000000000e+01	-4.502788299740656e-03	-1.116791056236381e-02	-2.803773266960798e+02	3.561706780462828e-01	9.666876024765835e+01	3.408675598809389e+02	
221	4.300000000000000e+01	1.000000000000000e+01	-4.529559821044716e-03	-1.000134668031027e-02	-2.422665503779066e+02	-7.251799158135466e-01	9.622252011381271e+01	3.088321990222497e+02	
222	4.400000000000000e+01	1.000000000000000e+01	-4.552506852517697e-03	-8.829519381297057e-03	-2.047862228112356e+02	-2.466865751300601e+00	9.468868695736344e+01	2.771225577104537e+02	
223	4.500000000000000e+01	1.000000000000000e+01	-4.571689297299853e-03	-7.653792333147831e-03	-1.684168104755934e+02	-4.977759495877795e+00	9.154408027900028e+01	2.454253408302865e+02	
224	4.600000000000000e+01	1.000000000000000e+01	-4.587221043124926e-03	-6.475617943820920e-03	-1.337878273683599e+02	-8.280347843321206e+00	8.623248134427594e+01	2.132985953350176e+02	
225	4.700000000000000e+01	1.000000000000000e+01	-4.599286688244756e-03	-5.296507494975188e-03	-1.016171453801705e+02	-1.229467798419517e+01	7.825380557590097e+01	1.802030397361507e+02	
226	4.800000000000000e+01	1.000000000000000e+01	-4.608148708572860e-03	-4.117972797309073e-03	-7.259439525033083e+01	-1.684283164710288e+01	6.726744148808504e+01	1.456292263991557e+02	
227	4.900000000000000e+01	1.000000000000000e+01	-4.614140603409802e-03	-2.941434438076374e-03	-4.729365779675166e+01	-2.156028007787297e+01	5.321288179576575e+01	1.094926932944068e+02	
228	5.000000000000000e+01	1.000000000000000e+01	-4.617661932766616e-03	-1.768087915185777e-03	-2.639597189202216e+01	-2.539492780530128e+01	3.650830424692298e+01	7.302347023530952e+01	
229	5.100000000000000e+01	1.000000000000000e+01	-4.619246003699231e-03	-5.987230036523338e-04	-1.182334708998019e+01	-2.510189828239195e+01	1.829613522322667e+01	3.892703659663658e+01	
230	1.000000000000000e+00	9.000000000000000e+00	-1.106601053394481e-04	-4.215248186549204e-02	-1.273204898283927e+03	-4.319693324100178e+02	1.238165537468923e+02	8.769261275718865e+02	
231	2.000000000000000e+00	9.000000000000000e+00	-2.287142419432777e-04	-4.204380067043222e-02	-1.299965952023824e+03	-2.615723278271445e+02	1.844259006841315e+02	1.101958697113884e+03	
232	3.000000000000000e+00	9.000000000000000e+00	-3.549576088448031e-04	-4.188118849769648e-02	-1.319468121820100e+03	-1.262962648874897e+02	1.823153482347458e+02	1.247643628999819e+03	
233	4.000000000000000e+00	9.000000000000000e+00	-4.850408382724135e-04	-4.167628555888513e-02	-1.314695561694414e+03	-5.647036042187565e+01	1.577790418624291e+02	1.297192183649525e+03	
234	5.000000000000000e+00	9.000000000000000e+00	-6.145349781976419e-04	-4.143326458431912e-02	-1.288622677613704e+03	-2.424139132088966e+01	1.372149869601839e+02	1.293820639699879e+03	
235	6.000000000000000e+00	9.000000000000000e+00	-7.413557429469392e-04	-4.115233396456536e-02	-1.254571250843251e+03	-8.434263376983477e+00	1.253703849151964e+02	1.271113026125782e+03	
236	7.000000000000000e+00	9.000000000000000e+00	-8.650088619375188e-04	-4.083304526117736e-02	-1.220323155651652e+03	-9.248683335024523e-01	1.199237211111473e+02	1.242762639708409e+03	
237	8.000000000000000e+00	9.000000000000000e+00	-9.854538437175349e-04	-4.047528104738086e-02	-1.187491029141389e+03	2.420952553680742e+00	1.181178570811432e+02	1.213135539347214e+03	
238	9.000000000000000e+00	9.000000000000000e+00	-1.102766972017990e-03	-4.007925641330834e-02	-1.156089911238487e+03	3.634967797616667e+00	1.181937101196070e+02	1.183571209307939e+03	
239	1.000000000000000e+01	9.000000000000000e+00	-1.217032588166626e-03	-3.964544675462129e-02	-1.125759148882014e+03	3.779621100861913e+00	1.191169894421178e+02	1.154388696059279e+03	
240	1.100000000000000e+01	9.000000000000000e+00	-1.328318460441381e-03	-3.917450552283925e-02	-1.096154387748126e+03	3.422542436346006e+00	1.203210117091500e+02	1.125601176629076e+03	
241	1.200000000000000e+01	9.000000000000000e+00	-1.436673951110096e-03	-3.866720448863468e-02	-1.067018994930429e+03	2.870781406461321e+00	1.215132536032243e+02	1.097144483062813e+03	
242	1.300000000000000e+01	9.000000000000000e+00	-1.542133737868483e-03	-3.812439182890810e-02	-1.038178410353477e+03	2.287344601625339e+00	1.225591859842680e+02	1.068949018200025e+03	
243	1.400000000000000e+01	9.000000000000000e+00	-1.644721853319700e-03	-3.754696374805894e-02	-1.009518760549713e+03	1.753427409007390e+00	1.234123217818974e+02	1.040958136914839e+03	
244	1.500000000000000e+01	9.000000000000000e+00	-1.744454869965199e-03	-3.693584554800274e-02	-9.809675264330041e+02	1.303391309256273e+00	1.240727604978174e+02	1.013129979534915e+03	
245	1.600000000000000e+01	9.000000000000000e+00	-1.841344176536174e-03	-3.629197925611215e-02	-9.524793068093595e+02	9.453341349294266e-01	1.245627883300348e+02	9.854349795425160e+02	
246	1.700000000000000e+01	9.000000000000000e+00	-1.935397552949427e-03	-3.561631574619828e-02	-9.240261285951692e+02	6.734895128335374e-01	1.249128814011773e+02	9.578529613092315e+02	
247	1.800000000000000e+01	9.000000000000000e+00	-2.026620254452451e-03	-3.490980989792966e-02	-8.955910786098738e+02	4.757154382386428e-01	1.251540686492436e+02	9.303708201537173e+02	
248	1.900000000000000e+01	9.000000000000000e+00	-2.115015763275648e-03	-3.417341777011088e-02	-8.671641886006158e+02	3.379085785231091e-01	1.253141555161295e+02	9.029808629761136e+02	
249	2.000000000000000e+01	9.000000000000000e+00	-2.200586315135741e-03	-3.340809507233734e-02	-8.387397980844883e+02	2.464629140549128e-01	1.254162336537854e+02	8.756796633472306e+02	
250	2.100000000000000e+01	9.000000000000000e+00	-2.283333271046351e-03	-3.261479644240933e-02	-8.103148710149496e+02	1.894960872225866e-01	1.254784817099547e+02	8.484672807955734e+02	
251	2.200000000000000e+01	9.000000000000000e+00	-2.363257380632885e-03	-3.179447519716846e-02	-7.818879258374534e+02	1.573267256447881e-01	1.255146368410085e+02	8.213467436483820e+02	
252	2.300000000000000e+01	9.000000000000000e+00	-2.440358968412720e-03	-3.094808333827745e-02	-7.534583612811869e+02	1.425276232360169e-01	1.255347637541832e+02	7.943237421862767e+02	
253	2.400000000000000e+01	9.000000000000000e+00	-2.514638065194268e-03	-3.007657167410450e-02	-7.250260382331420e+02	1.397706586272793e-01	1.255461097383088e+02	7.674065109623114e+02	
254	2.500000000000000e+01	9.000000000000000e+00	-2.586094501176450e-03	-2.918088997300993e-02	-6.965910300742263e+02	1.456011412448444e-01	1.255539388243005e+02	7.406059002564509e+02	
255	2.600000000000000e+01	9.000000000000000e+00	-2.654727973677348e-03	-2.826198709966785e-02	-6.681534865980418e+02	1.582245997910512e-01	1.255623039937297e+02	7.139356498039797e+02	
256	2.700000000000000e+01	9.000000000000000e+00	-2.720538099993822e-03	-2.732081110994053e-02	-6.397135789444037e+02	1.773498449927402e-01	1.255747535912663e+02	6.874128859026323e+02	
257	2.800000000000000e+01	9.000000000000000e+00	-2.783524464467623e-03	-2.635830929617667e-02	-6.112715081990646e+02	2.041022652655986e-01	1.255949873825091e+02	6.610588669817353e+02	
258	2.900000000000000e+01	9.000000000000000e+00	-2.843686667673013e-03	-2.537542818727137e-02	-5.828275719953226e+02	2.409960620381977e-01	1.256274799845895e+02	6.348999999728894e+02	
259	3.000000000000000e+01	9.000000000000000e+00	-2.901024384891623e-03	-2.437311352004169e-02	-5.543822919430526e+02	2.919265532767437e-01	1.256780795521007e+02	6.089691350012167e+02	
260	3.100000000000000e+01	9.000000000000000e+00	-2.955537439964901e-03	-2.335231021344373e-02	-5.259366070496139e+02	3.621100508163284e-01	1.257545639321126e+02	5.833071069518884e+02	
261	3.200000000000000e+01	9.000000000000000e+00	-3.007225898490612e-03	-2.231396239815635e-02	-4.974921395140956e+02	4.578500030279713e-01	1.258670926738965e+02	5.579644183393959e+02	
262	3.300000000000000e+01	9.000000000000000e+00	-3.056090180280425e-03	-2.125901358448941e-02	-4.690515291044179e+02	5.859404850095880e-01	1.260284237572995e+02	5.330028210257035e+02	
263	3.400000000000000e+01	9.000000000000000e+00	-3.102131182977649e-03	-2.018840709474917e-02	-4.406188103987648e+02	7.524271537672629e-01	1.262536621323493e+02	5.084963305137720e+02	
264	3.500000000000000e+01	9.000000000000000e+00	-3.145350394939191e-03	-1.910308694529619e-02	-4.121997718048448e+02	9.603314060107619e-01	1.265591597407754e+02	4.845308602580120e+02	
265	3.600000000000000e+01	9.000000000000000e+00	-3.185749953339318e-03	-1.800399944077741e-02	-3.838021872954508e+02	1.205822793348441e+00	1.269599916654122e+02	4.612011771095810e+02	
266	3.700000000000000e+01	9.000000000000000e+00	-3.223332573120450e-03	-1.689209583781952e-02	-3.554357715376003e+02	1.472240976539937e+00	1.274651801626632e+02	4.386032580959636e+02	
267	3.800000000000000e+01	9.000000000000000e+00	-3.258101237240654e-03	-1.576833654260681e-02	-3.271117402324846e+02	1.721418117304997e+00	1.280695530633020e+02	4.168194905683196e+02	
268	3.900000000000000e+01	9.000000000000000e+00	-3.290058517605895e-03	-1.463369741104138e-02	-2.988420850344572e+02	1.882124284845180e+00	1.287408578133013e+02	3.958937786234310e+02	
269	4.000000000000000e+01	9.000000000000000e+00	-3.319205429200550e-03	-1.348917878741637e-02	-2.706393246173179e+02	1.836462483438930e+00	1.294006697470724e+02	3.757940764303510e+02	
270	4.100000000000000e+01	9.000000000000000e+00	-3.345539889481874e-03	-1.233581787772436e-02	-2.425188652650315e+02	1.407101493963416e+00	1.298981153676118e+02	3.563621174641600e+02	
271	4.200000000000000e+01	9.000000000000000e+00	-3.369055286612535e-03	-1.117470475401898e-02	-2.145081868813075e+02	3.518002869548340e-01	1.299772521336470e+02	3.372553311288058e+02	
272	4.300000000000000e+01	9.000000000000000e+00	-3.389740459785324e-03	-1.000700144998752e-02	-1.866691335073606e+02	-1.623695760175470e+00	1.292436853163203e+02	3.178954778030406e+02	
273	4.400000000000000e+01	9.000000000000000e+00	-3.407583515718574e-03	-8.833961681259141e-03	-1.591368583535465e+02	-4.819061532519477e+00	1.271450383796396e+02	2.974515516078810e+02	
274	4.500000000000000e+01	9.000000000000000e+00	-3.422582411269839e-03	-7.656945311508066e-03	-1.321671787072050e+02	-9.450484481074021e+00	1.229928205482199e+02	2.748969309894459e+02	
275	4.600000000000000e+01	9.000000000000000e+00	-3.434763586598181e-03	-6.477417249667331e-03	-1.061602156670655e+02	-1.553685124903841e+01	1.160565927393968e+02	2.491768950997571e+02	
276	4.700000000000000e+01	9.000000000000000e+00	-3.444204097614912e-03	-5.296918460395609e-03	-8.161730464896253e+01	-2.282465758231106e+01	1.057365883201305e+02	2.194936896300823e+02	
277	4.800000000000000e+01	9.000000000000000e+00	-3.451046102789561e-03	-4.117002992135624e-03	-5.903194334665731e+01	-3.081503440836615e+01	9.174810819884497e+01	1.856530510988162e+02	
278	4.900000000000000e+01	9.000000000000000e+00	-3.455495514508910e-03	-2.939153845246367e-03	-3.885285369515599e+01	-3.880342393557206e+01	7.417441152025509e+01	1.483488312754965e+02	
279	5.000000000000000e+01	9.000000000000000e+00	-3.457826686386349e-03	-1.764718117728115e-03	-2.181611144709032e+01	-4.549400160105753e+01	5.322202987426778e+01	1.090457717561444e+02	
280	5.100000000000000e+01	9.000000000000000e+00	-3.458470646674347e-03	-5.949311444997223e-04	-9.839042792402463e+00	-4.747848927329539e+01	2.853748457430812e+01	6.836870654549125e+01	
281	1.000000000000000e+00	8.000000000000000e+00	-6.995013242996242e-05	-4.214591714959633e-02	-8.212699608835218e+02	-3.348577863426470e+02	9.234924639733208e+01	5.202983151829372e+02	
282	2.000000000000000e+00	8.000000000000000e+00	-1.441593269330895e-04	-4.204998822213871e-02	-8.424181591433346e+02	-2.398821830520183e+02	1.529736551316216e+02	6.757613181750110e+02	
283	3.000000000000000e+00	8.000000000000000e+00	-2.240432695339578e-04	-4.189944808317279e-02	-8.624159434362091e+02	-1.437293784042538e+02	1.748442662085504e+02	7.992449239510106e+02	
284	4.000000000000000e+00	8.000000000000000e+00	-3.080311607934069e-04	-4.170203752923400e-02	-8.699443602586823e+02	-7.578211712958191e+01	1.722577023179292e+02	8.656699904947920e+02	
285	5.000000000000000e+00	8.000000000000000e+00	-3.935117034285047e-04	-4.146244353205540e-02	-8.627551861275211e+02	-3.624819674487576e+01	1.621675576057001e+02	8.878665837036309e+02	
286	6.000000000000000e+00	8.000000000000000e+00	-4.784512843008393e-04	-4.118268041019695e-02	-8.454690570783274e+02	-1.488836282153203e+01	1.534344787690977e+02	8.854562929770609e+02	
287	7.000000000000000e+00	8.000000000000000e+00	-5.617765416454667e-04	-4.086348875439546e-02	-8.237185493048304e+02	-3.711054299577480e+00	1.480624604675654e+02	8.718384372483398e+02	
288	8.000000000000000e+00	8.000000000000000e+00	-6.430596080879101e-04	-4.050530436308460e-02	-8.008721668596060e+02	1.745987208729563e+00	1.454837446027324e+02	8.537317968862321e+02	
289	9.000000000000000e+00	8.000000000000000e+00	-7.221684030484000e-04	-4.010861549748669e-02	-7.782631281542406e+02	4.054032778377199e+00	1.446886437473416e+02	8.341219064426085e+02	
290	1.000000000000000e+01	8.000000000000000e+00	-7.990958462130106e-04	-3.967403029989452e-02	-7.563083990999900e+02	4.672567664661603e+00	1.448758892171011e+02	8.142776706282980e+02	
291	1.100000000000000e+01	8.000000000000000e+00	-8.738806737334253e-04	-3.920226920925177e-02	-7.350474763030527e+02	4.438150223468057e+00	1.455163127551212e+02	7.946942688548255e+02	
292	1.200000000000000e+01	8.000000000000000e+00	-9.465737338782176e-04	-3.869413774150428e-02	-7.143905771055058e+02	3.827083284419963e+00	1.462970242710174e+02	7.755307117956047e+02	
293	1.300000000000000e+01	8.000000000000000e+00	-1.017224204798994e-03	-3.815050052283234e-02	-6.942173570150272e+02	3.104188268889395e+00	1.470507123151267e+02	7.568044565716391e+02	
294	1.400000000000000e+01	8.000000000000000e+00	-1.085874565575792e-03	-3.757226087867549e-02	-6.744138222266384e+02	2.408620028875003e+00	1.477005996324794e+02	7.384784945195721e+02	
295	1.500000000000000e+01	8.000000000000000e+00	-1.152559350486434e-03	-3.696034618427298e-02	-6.548838581283286e+02	1.805178723563692e+00	1.482224242045619e+02	7.204998537611054e+02	
296	1.600000000000000e+01	8.000000000000000e+00	-1.217305508542686e-03	-3.631569789776423e-02	-6.355509449829030e+02	1.315730355678230e+00	1.486199220496144e+02	7.028162541354261e+02	
297	1.700000000000000e+01	8.000000000000000e+00	-1.280133389029870e-03	-3.563926507576427e-02	-6.163563211971568e+02	9.386605587709234e-01	1.489097909263722e+02	6.853828111617585e+02	
298	1.800000000000000e+01	8.000000000000000e+00	-1.341057902874331e-03	-3.493200034179963e-02	-5.972560985135126e+02	6.608382655505274e-01	1.491129717823619e+02	6.681641839415878e+02	
299	1.900000000000000e+01	8.000000000000000e+00	-1.400089650251963e-03	-3.419485751294537e-02	-5.782183041805453e+02	4.647794415573490e-01	1.492499723190904e+02	6.511346467662295e+02	
300	2.000000000000000e+01	8.000000000000000e+00	-1.457235920887663e-03	-3.342879030428081e-02	-5.592202137348918e+02	3.327199653303108e-01	1.493386758177499e+02	6.342772627112855e+02	
301	2.100000000000000e+01	8.000000000000000e+00	-1.512501532860718e-03	-3.263475170392376e-02	-5.402460916351148e+02	2.487271696489231e-01	1.493936045180140e+02	6.175827437990260e+02	
302	2.200000000000000e+01	8.000000000000000e+00	-1.565889507794841e-03	-3.181369374247769e-02	-5.212853565286038e+02	1.996107888824934e-01	1.494259786470030e+02	6.010483038130780e+02	
303	2.300000000000000e+01	8.000000000000000e+00	-1.617401597319090e-03	-3.096656747577773e-02	-5.023311466135511e+02	1.751445923846635e-01	1.494441662099254e+02	5.846766695860747e+02	
304	2.400000000000000e+01	8.000000000000000e+00	-1.667038684476727e-03	-3.009432306643332e-02	-4.833792425800851e+02	1.679366699861919e-01	1.494542887075092e+02	5.684753400218611e+02	
305	2.500000000000000e+01	8.000000000000000e+00	-1.714801086828634e-03	-2.919790989481537e-02	-4.644273027326249e+02	1.731640328907851e-01	1.494608579293351e+02	5.524561393727348e+02	
306	2.600000000000000e+01	8.000000000000000e+00	-1.760688788790428e-03	-2.827827666004431e-02	-4.454743685114366e+02	1.883012632310432e-01	1.494673878003464e+02	5.366350857837390e+02	
307	2.700000000000000e+01	8.000000000000000e+00	-1.804701629399933e-03	-2.733637145100833e-02	-4.265206058411405e+02	2.129124020826012e-01	1.494769652928848e+02	5.210325788325722e+02	
308	2.800000000000000e+01	8.000000000000000e+00	-1.846839470286327e-03	-2.637314178041427e-02	-4.075672577009157e+02	2.485301452901840e-01	1.494927844797941e+02	5.056738941874597e+02	
309	2.900000000000000e+01	8.000000000000000e+00	-1.887102366506004e-03	-2.538953458457234e-02	-3.886167909325328e+02	2.986089555026084e-01	1.495186542788313e+02	4.905899511603160e+02	
310	3.000000000000000e+01	8.000000000000000e+00	-1.925490760847367e-03	-2.438649620062201e-02	-3.696732249291359e+02	3.684999189150506e-01	1.495594830937296e+02	4.758182784021386e+02	
311	3.100000000000000e+01	8.000000000000000e+00	-1.962005718660912e-03	-2.336497234373022e-02	-3.507426252225949e+02	4.653471403651421e-01	1.496217262332896e+02	4.614040351962904e+02	
312	3.200000000000000e+01	8.000000000000000e+00	-1.996649214344720e-03	-2.232590812163229e-02	-3.318337253873427e+02	5.977403936347230e-01	1.497137484284918e+02	4.474008329399131e+02	
313	3.300000000000000e+01	8.000000000000000e+00	-2.029424469352083e-03	-2.127024814536429e-02	-3.129585994341159e+02	7.748666876613193e-01	1.498460026069650e+02	4.338709321375777e+02	
314	3.400000000000000e+01	8.000000000000000e+00	-2.060336321731985e-03	-2.019893682559470e-02	-2.941332299929012e+02	1.004779609026558e+00	1.500308485103664e+02	4.208841488233427e+02	
315	3.500000000000000e+01	8.000000000000000e+00	-2.089391573497846e-03	-1.911291898689078e-02	-2.753777009494811e+02	1.291247466356929e+00	1.502817204945168e+02	4.085144906569336e+02	
316	3.600000000000000e+01	8.000000000000000e+00	-2.116599209057229e-03	-1.801314099111382e-02	-2.567155750005689e+02	1.628462461822674e+00	1.506111872382828e+02	3.968331646645348e+02	
317	3.700000000000000e+01	8.000000000000000e+00	-2.141970300234951e-03	-1.690055264114660e-02	-2.381718209572000e+02	1.992736780433567e+00	1.510271995261772e+02	3.858961968978084e+02	
318	3.800000000000000e+01	8.000000000000000e+00	-2.165517311925593e-03	-1.577611024484464e-02	-2.197684974286753e+02	2.330273762398802e+00	1.515264636757406e+02	3.757245546153288e+02	
319	3.900000000000000e+01	8.000000000000000e+00	-2.187252410733938e-03	-1.464078136736467e-02	-2.015174454993287e+02	2.540391895392709e+00	1.520833548964983e+02	3.662744713305959e+02	
320	4.000000000000000e+01	8.000000000000000e+00	-2.207184304580101e-03	-1.349555200103922e-02	-1.834098786063518e+02	2.454565957395924e+00	1.526320969898616e+02	3.573958867685532e+02	
321	4.100000000000000e+01	8.000000000000000e+00	-2.225313215828133e-03	-1.234143713255289e-02	-1.654046187343189e+02	1.814006285320629e+00	1.530392251448525e+02	3.487779899666924e+02	
322	4.200000000000000e+01	8.000000000000000e+00	-2.241624030428108e-03	-1.117949592721869e-02	-1.474209247498854e+02	2.531311013339002e-01	1.530634506282352e+02	3.398842544814893e+02	
323	4.300000000000000e+01	8.000000000000000e+00	-2.256078857526479e-03	-1.001085265826745e-02	-1.293485192683261e+02	-2.695172194422266e+00	1.523029533961080e+02	3.298876002182120e+02	
324	4.400000000000000e+01	8.000000000000000e+00	-2.268612518573014e-03	-8.836723404535196e-03	-1.110964354559114e+02	-7.545724823497664e+00	1.501419853042177e+02	3.176369195746073e+02	
325	4.500000000000000e+01	8.000000000000000e+00	-2.279138129943371e-03	-7.658444227852335e-03	-9.269153727106286e+01	-1.471646689625715e+01	1.457340537041067e+02	3.017180293520454e+02	
326	4.600000000000000e+01	8.000000000000000e+00	-2.287570993268033e-03	-6.477488004750028e-03	-7.440020088239879e+01	-2.428318810307220e+01	1.380988571344821e+02	2.807078416028373e+02	
327	4.700000000000000e+01	8.000000000000000e+00	-2.293873224473090e-03	-5.295446917869091e-03	-5.677176184388177e+01	-3.572367132308020e+01	1.263933218377907e+02	2.536614068701371e+02	
328	4.800000000000000e+01	8.000000000000000e+00	-2.298101620789828e-03	-4.113962096984604e-03	-4.050724690720752e+01	-4.790947097798121e+01	1.102834182659274e+02	2.206910109154061e+02	
329	4.900000000000000e+01	8.000000000000000e+00	-2.300426400654000e-03	-2.934621713541427e-03	-2.622842362267849e+01	-5.952743136460820e+01	9.004169852056251e+01	1.831361619300475e+02	
330	5.000000000000000e+01	8.000000000000000e+00	-2.301107489831480e-03	-1.758924287498985e-03	-1.450406529120210e+01	-6.950400382809642e+01	6.586444728425361e+01	1.427497632337898e+02	
331	5.100000000000000e+01	8.000000000000000e+00	-2.300493143097478e-03	-5.884562604630302e-04	-6.455357035491454e+00	-7.621625304559286e+01	3.629172647180577e+01	1.006724403863821e+02	
332	1.000000000000000e+00	7.000000000000000e+00	-2.958441973059410e-05	-4.213478522507830e-02	-3.860250784898626e+02	-2.566304995892375e+02	7.247640037437898e+01	1.943045843354686e+02	
333	2.000000000000000e+00	7.000000000000000e+00	-6.180717806099316e-05	-4.204635681409294e-02	-4.020415023694702e+02	-2.007354222341438e+02	1.277858771561665e+02	3.253322294236062e+02	
334	3.000000000000000e+00	7.000000000000000e+00	-9.795368066653356e-05	-4.190415966010515e-02	-4.199128116896720e+02	-1.358912324091388e+02	1.590763539482313e+02	4.264849388183128e+02	
335	4.000000000000000e+00	7.000000000000000e+00	-1.376503243425782e-04	-4.171328005672928e-02	-4.322577535587229e+02	-8.127268468065806e+01	1.707017436111187e+02	4.896395201194899e+02	
336	5.000000000000000e+00	7.000000000000000e+00	-1.795558619928715e-04	-4.147771453968697e-02	-4.357630426411271e+02	-4.332666708246092e+01	1.714843278173454e+02	5.211850032469176e+02	
337	6.000000000000000e+00	7.000000000000000e+00	-2.222469037277999e-04	-4.119999625158536e-02	-4.313455310944038e+02	-1.992069799606174e+01	1.685437941531778e+02	5.318819751412842e+02	
338	7.000000000000000e+00	7.000000000000000e+00	-2.646930722539244e-04	-4.088161280486268e-02	-4.218350897574767e+02	-6.553801576447292e+00	1.654808661623345e+02	5.310312764580266e+02	
339	8.000000000000000e+00	7.000000000000000e+00	-3.063066412359726e-04	-4.052354136209103e-02	-4.098797813925038e+02	5.212834908338557e-01	1.634036720576901e+02	5.246256515127011e+02	
340	9.000000000000000e+00	7.000000000000000e+00	-3.468114205471728e-04	-4.012659142415078e-02	-3.971631830066623e+02	3.824777166334185e+00	1.623312467541973e+02	5.159429027467952e+02	
341	1.000000000000000e+01	7.000000000000000e+00	-3.861074072876408e-04	-3.969155552123756e-02	-3.845330589269559e+02	4.971403238331558e+00	1.619717970368912e+02	5.066094927931269e+02	
342	1.100000000000000e+01	7.000000000000000e+00	-4.241846620808393e-04	-3.921925702499760e-02	-3.723450190416564e+02	4.960601630820292e+00	1.620301291319105e+02	4.973676531269974e+02	
343	1.200000000000000e+01	7.000000000000000e+00	-4.610740869041392e-04	-3.871055781899266e-02	-3.606964343298994e+02	4.395270833713518e+00	1.622891841081259e+02	4.885110748930870e+02	
344	1.300000000000000e+01	7.000000000000000e+00	-4.968212034883662e-04	-3.816635205568750e-02	-3.495629490959195e+02	3.626110547799414e+00	1.626128227729585e+02	4.801189773095549e+02	
345	1.400000000000000e+01	7.000000000000000e+00	-5.314728941020364e-04	-3.758755715234821e-02	-3.388706772212521e+02	2.845688197765604e+00	1.629261737742221e+02	4.721756313047251e+02	
346	1.500000000000000e+01	7.000000000000000e+00	-5.650712651043517e-04	-3.697510581456951e-02	-3.285326933663670e+02	2.149340137929713e+00	1.631946901801475e+02	4.646295673916094e+02	
347	1.600000000000000e+01	7.000000000000000e+00	-5.976513422565564e-04	-3.632994005176556e-02	-3.184663531169073e+02	1.574569048625163e+00	1.634077579045318e+02	4.574216580291195e+02	
348	1.700000000000000e+01	7.000000000000000e+00	-6.292407640583929e-04	-3.565300707970130e-02	-3.086005430447611e+02	1.126313900389663e+00	1.635674889710774e+02	4.504975246395212e+02	
349	1.800000000000000e+01	7.000000000000000e+00	-6.598604446904427e-04	-3.494525670057969e-02	-2.988777224138870e+02	7.928535026234940e-01	1.636817122503405e+02	4.438121965099046e+02	
350	1.900000000000000e+01	7.000000000000000e+00	-6.895256308346644e-04	-3.420763973252775e-02	-2.892533807053156e+02	5.554904630020374e-01	1.637599367495776e+02	4.373310523445107e+02	
351	2.000000000000000e+01	7.000000000000000e+00	-7.182470377203284e-04	-3.344110713654255e-02	-2.796943431702853e+02	3.941490624667807e-01	1.638112524561381e+02	4.310290816246751e+02	
352	2.100000000000000e+01	7.000000000000000e+00	-7.460319032222696e-04	-3.264660958121624e-02	-2.701767064057833e+02	2.903516584140764e-01	1.638434124337091e+02	4.248894970337486e+02	
353	2.200000000000000e+01	7.000000000000000e+00	-7.728848897256456e-04	-3.182509726605924e-02	-2.606838215420197e+02	2.285777009744745e-01	1.638625872199356e+02	4.189022201425765e+02	
354	2.300000000000000e+01	7.000000000000000e+00	-7.988088164121687e-04	-3.097751988578936e-02	-2.512045317636640e+02	1.966851610834830e-01	1.638734701713121e+02	4.130624998413626e+02	
355	2.400000000000000e+01	7.000000000000000e+00	-8.238052338565026e-04	-3.010482666177582e-02	-2.417317496086093e+02	1.858431821951196e-01	1.638795434611591e+02	4.073697838105438e+02	
356	2.500000000000000e+01	7.000000000000000e+00	-8.478748676669998e-04	-2.920796639642224e-02	-2.322613948319751e+02	1.902620093761165e-01	1.638834004070602e+02	4.018268887023523e+02	
357	2.600000000000000e+01	7.000000000000000e+00	-8.710179643641678e-04	-2.828788752555027e-02	-2.227916808684067e+02	2.068919913880798e-01	1.638870732667472e+02	3.964394715883697e+02	
358	2.700000000000000e+01	7.000000000000000e+00	-8.932345741703957e-04	-2.734553815610951e-02	-2.133227258325890e+02	2.351843165736351e-01	1.638923474913416e+02	3.912157809344715e+02	
359	2.800000000000000e+01	7.000000000000000e+00	-9.145248046336879e-04	-2.638186608442546e-02	-2.038564643063233e+02	2.769475879444911e-01	1.639010597299529e+02	3.861666471537918e+02	
360	2.900000000000000e+01	7.000000000000000e+00	-9.348890770606201e-04	-2.539781879565159e-02	-1.943968383027307e+02	3.362877459328901e-01	1.639153836906211e+02	3.813056548524540e+02	
361	3.000000000000000e+01	7.000000000000000e+00	-9.543284146344511e-04	-2.439434344982514e-02	-1.849502466326350e+02	4.195711407021001e-01	1.639381076106133e+02	3.766494150388613e+02	
362	3.100000000000000e+01	7.000000000000000e+00	-9.728447863494212e-04	-2.337238686502895e-02	-1.755262210152147e+02	5.352947896753868e-01	1.639729001045606e+02	3.722178195926633e+02	
363	3.200000000000000e+01	7.000000000000000e+00	-9.904415224045787e-04	-2.233289551497978e-02	-1.661382679003660e+02	6.936715042864385e-01	1.640245484014976e+02	3.680341097218824e+02	
364	3.300000000000000e+01	7.000000000000000e+00	-1.007123801401736e-03	-2.127681556790855e-02	-1.568047552903543e+02	9.056311936857853e-01	1.640991322661266e+02	3.641245210733934e+02	
365	3.400000000000000e+01	7.000000000000000e+00	-1.022899182890781e-03	-2.020509300748420e-02	-1.475496176677817e+02	1.180795165605503e+00	1.642040630878129e+02	3.605171744033501e+02	
366	3.500000000000000e+01	7.000000000000000e+00	-1.037778113771878e-03	-1.911867389701696e-02	-1.384024853157080e+02	1.523789190637336e+00	1.643478627743413e+02	3.572397546343352e+02	
367	3.600000000000000e+01	7.000000000000000e+00	-1.051774265102726e-03	-1.801850487973152e-02	-1.293975947281342e+02	1.928029224955752e+00	1.645394579578709e+02	3.543153290600736e+02	
368	3.700000000000000e+01	7.000000000000000e+00	-1.064904447413641e-03	-1.690553405962870e-02	-1.205705027413579e+02	2.365862086237344e+00	1.647865805277673e+02	3.517553386732899e+02	
369	3.800000000000000e+01	7.000000000000000e+00	-1.077187698621226e-03	-1.578071249774552e-02	-1.119512298525844e+02	2.773739091920429e+00	1.650925026245615e+02	3.495482172614831e+02	
370	3.900000000000000e+01	7.000000000000000e+00	-1.088642938440920e-03	-1.464499672360155e-02	-1.035521165587518e+02	3.031095025486588e+00	1.654496397959033e+02	3.476410709711773e+02	
371	4.000000000000000e+01	7.000000000000000e+00	-1.099284361017218e-03	-1.349935296448860e-02	-9.534872558309462e+01	2.932128343473484e+00	1.658272599772371e+02	3.459101716555443e+02	
372	4.100000000000000e+01	7.000000000000000e+00	-1.109113578584180e-03	-1.234476433835182e-02	-8.725343786155321e+01	2.151398195950244e+00	1.661483632486565e+02	3.441138462068899e+02	
373	4.200000000000000e+01	7.000000000000000e+00	-1.118107673848657e-03	-1.118224313464721e-02	-7.908569933387649e+01	2.086142904708015e-01	1.662475808170555e+02	3.418195732886722e+02	
374	4.300000000000000e+01	7.000000000000000e+00	-1.126203290291825e-03	-1.001285157732296e-02	-7.055468769516736e+01	-3.552612321843780e+00	1.657996622641440e+02	3.383007391832737e+02	
375	4.400000000000000e+01	7.000000000000000e+00	-1.133279961863119e-03	-8.837735248609009e-03	-6.128993914906430e+01	-9.934791498175738e+00	1.642108291607240e+02	3.324126003099981e+02	
376	4.500000000000000e+01	7.000000000000000e+00	-1.139152160288371e-03	-7.658172371853938e-03	-5.099819787940784e+01	-1.974121181166654e+01	1.604996606960172e+02	3.225175398519987e+02	
377	4.600000000000000e+01	7.000000000000000e+00	-1.143592762226803e-03	-6.475629008130512e-03	-3.975899159698632e+01	-3.336314177424508e+01	1.532725992496286e+02	3.066119136920547e+02	
378	4.700000000000000e+01	7.000000000000000e+00	-1.146409022539939e-03	-5.291783740205499e-03	-2.832754510351234e+01	-5.012314119718040e+01	1.410512184265045e+02	2.829431619380194e+02	
379	4.800000000000000e+01	7.000000000000000e+00	-1.147565970780448e-03	-4.108458368051412e-03	-1.803824620194142e+01	-6.783520293077507e+01	1.230340175590277e+02	2.510561985020762e+02	
380	4.900000000000000e+01	7.000000000000000e+00	-1.147269246262589e-03	-2.927435655581541e-03	-1.009398959794927e+01	-8.367085806206254e+01	9.980415271169230e+01	2.127369999952538e+02	
381	5.000000000000000e+01	7.000000000000000e+00	-1.145894058459170e-03	-1.750311516216591e-03	-4.786566424856874e+00	-9.661065631117411e+01	7.255061383421439e+01	1.717149665996988e+02	
382	5.100000000000000e+01	7.000000000000000e+00	-1.143765016187770e-03	-5.787138689143968e-04	-1.791262509169175e+00	-1.088497315444520e+02	4.006356699532386e+01	1.337231221357542e+02	
383	1.000000000000000e+00	6.000000000000000e+00	1.088756981756917e-05	-4.211774948837078e-02	4.225821645227229e+01	-1.927061574211683e+02	5.914054235345564e+01	2.630564045773862e+02	
384	2.000000000000000e+00	6.000000000000000e+00	2.001264983030399e-05	-4.203395085470961e-02	2.955736220121008e+01	-1.585094287923302e+02	1.082287827975704e+02	2.867455240766325e+02	
385	3.000000000000000e+00	6.000000000000000e+00	2.630328177353203e-05	-4.189743742595865e-02	1.354442365825628e+01	-1.154211354302739e+02	1.419605152349006e+02	3.118385270842122e+02	
386	4.000000000000000e+00	6.000000000000000e+00	2.963188065280614e-05	-4.171167351591593e-02	-9.860995656856364e-01	-7.496336604385982e+01	1.609521163711429e+02	3.302952785205725e+02	
387	5.000000000000000e+00	6.000000000000000e+00	3.057657565582685e-05	-4.147985857251713e-02	-1.106366433636437e+01	-4.337507252207947e+01	1.693998719280669e+02	3.403370293340496e+02	
388	6.000000000000000e+00	6.000000000000000e+00	2.997835084278969e-05	-4.120448855957116e-02	-1.610898727832643e+01	-2.170294143199768e+01	1.719487162335190e+02	3.439429260509574e+02	
389	7.000000000000000e+00	6.000000000000000e+00	2.859429499706896e-05	-4.088737404427489e-02	-1.716648820741228e+01	-8.233305241949591e+00	1.719288522804274e+02	3.439737239147120e+02	
390	8.000000000000000e+00	6.000000000000000e+00	2.695402965870601e-05	-4.052985920440414e-02	-1.578015765778508e+01	-6.002049882117539e-01	1.711362152395671e+02	3.426088843406490e+02	
391	9.000000000000000e+00	6.000000000000000e+00	2.536419295506271e-05	-4.013303749018787e-02	-1.326519317196612e+01	3.230532623781809e+00	1.703221929095541e+02	3.410435552236780e+02	
392	1.000000000000000e+01	6.000000000000000e+00	2.396957516424253e-05	-3.969789104124102e-02	-1.048366140871995e+01	4.744830916945357e+00	1.697104989229342e+02	3.397624475382731e+02	
393	1.100000000000000e+01	6.000000000000000e+00	2.281547364443614e-05	-3.922536173389565e-02	-7.902805854623517e+00	4.949213463722746e+00	1.693120772715965e+02	3.388679572350437e+02	
394	1.200000000000000e+01	6.000000000000000e+00	2.189304996214893e-05	-3.871638172674088e-02	-5.726451236568440e+00	4.488821352049838e+00	1.690752562041515e+02	3.383047750713219e+02	
395	1.300000000000000e+01	6.000000000000000e+00	2.116833110272381e-05	-3.817188454329780e-02	-4.004312811072630e+00	3.756155543979068e+00	1.689442136757576e+02	3.379775350628646e+02	
396	1.400000000000000e+01	6.000000000000000e+00	2.059918382239646e-05	-3.759280780162206e-02	-2.706283314134695e+00	2.974975698188103e+00	1.688763274020842e+02	3.378004329944365e+02	
397	1.500000000000000e+01	6.000000000000000e+00	2.014442558695329e-05	-3.698009293290393e-02	-1.767737270443680e+00	2.260849625289227e+00	1.688435514924248e+02	3.377111325299729e+02	
398	1.600000000000000e+01	6.000000000000000e+00	1.976810510203408e-05	-3.633468413304205e-02	-1.115142559929797e+00	1.663057771342263e+00	1.688290640178932e+02	3.376695571497559e+02	
399	1.700000000000000e+01	6.000000000000000e+00	1.944097621862726e-05	-3.565752736762064e-02	-6.792781269464774e-01	1.192637029617019e+00	1.688234684241706e+02	3.376521257587772e+02	
400	1.800000000000000e+01	6.000000000000000e+00	1.914045189729567e-05	-3.494956964412931e-02	-4.010522243190886e-01	8.404974832155307e-01	1.688218430695940e+02	3.376459687828876e+02	
401	1.900000000000000e+01	6.000000000000000e+00	1.884982712470781e-05	-3.421175854342440e-02	-2.331309844686684e-01	5.886413789297240e-01	1.688217778417626e+02	3.376445557156683e+02	
402	2.000000000000000e+01	6.000000000000000e+00	1.855723377818315e-05	-3.344504194256779e-02	-1.393740810202919e-01	4.167335057353547e-01	1.688221851689874e+02	3.376448282982808e+02	
403	2.100000000000000e+01	6.000000000000000e+00	1.825458205548090e-05	-3.265036786162195e-02	-9.328109402826357e-02	3.056491345936294e-01	1.688226294447689e+02	3.376454945588796e+02	
404	2.200000000000000e+01	6.000000000000000e+00	1.793661312451832e-05	-3.182868438414035e-02	-7.614498553533622e-02	2.391437568980468e-01	1.688229719688788e+02	3.376460911436863e+02	
405	2.300000000000000e+01	6.000000000000000e+00	1.760010958218698e-05	-3.098093961860611e-02	-7.529249560946294e-02	2.044270793296477e-01	1.688231943613157e+02	3.376465045879714e+02	
406	2.400000000000000e+01	6.000000000000000e+00	1.724326564578190e-05	-3.010808168123127e-02	-8.259535894618786e-02	1.921593670713371e-01	1.688233170292322e+02	3.376467458471502e+02	
407	2.500000000000000e+01	6.000000000000000e+00	1.686519551196633e-05	-2.921105868923753e-02	-9.332762312882359e-02	1.961992753432149e-01	1.688233648548112e+02	3.376468538420397e+02	
408	2.600000000000000e+01	6.000000000000000e+00	1.646554724405935e-05	-2.829081875884305e-02	-1.053833635453429e-01	2.133009476892234e-01	1.688233549112741e+02	3.376468602159397e+02	
409	2.700000000000000e+01	6.000000000000000e+00	1.604418573794047e-05	-2.734831000507001e-02	-1.188440734029337e-01	2.428671409225487e-01	1.688232939038424e+02	3.376467815531123e+02	
410	2.800000000000000e+01	6.000000000000000e+00	1.560090798762222e-05	-2.638448054180154e-02	-1.358753761905849e-01	2.867997767338437e-01	1.688231808357988e+02	3.376466262297791e+02	
411	2.900000000000000e+01	6.000000000000000e+00	1.513515561600583e-05	-2.540027848098081e-02	-1.609344016650356e-01	3.494382496866288e-01	1.688230148078796e+02	3.376464153452978e+02	
412	3.000000000000000e+01	6.000000000000000e+00	1.464569240728849e-05	-2.439665192940234e-02	-2.012668821946972e-01	4.375255075410251e-01	1.688228136674083e+02	3.376462316005304e+02	
413	3.100000000000000e+01	6.000000000000000e+00	1.413021945931456e-05	-2.337454898055790e-02	-2.676632081523627e-01	5.600848030947763e-01	1.688226541836321e+02	3.376463229907814e+02	
414	3.200000000000000e+01	6.000000000000000e+00	1.358490888098295e-05	-2.233491769676162e-02	-3.754155803729140e-01	7.280118457691298e-01	1.688227546464567e+02	3.376473122916213e+02	
415	3.300000000000000e+01	6.000000000000000e+00	1.300385200122261e-05	-2.127870607350582e-02	-5.453598969056830e-01	9.530800086705380e-01	1.688236345615318e+02	3.376505940590260e+02	
416	3.400000000000000e+01	6.000000000000000e+00	1.237844447199379e-05	-2.020686197320821e-02	-8.047807758535281e-01	1.245906324530010e+00	1.688264043764253e+02	3.376590359760461e+02	
417	3.500000000000000e+01	6.000000000000000e+00	1.169677552786132e-05	-1.912033301029899e-02	-1.187786008512267e+00	1.612223258254121e+00	1.688332569075381e+02	3.376781227795503e+02	
418	3.600000000000000e+01	6.000000000000000e+00	1.094316200877167e-05	-1.802006636711567e-02	-1.734485170482854e+00	2.046532827616505e+00	1.688482325233902e+02	3.377176314647983e+02	
419	3.700000000000000e+01	6.000000000000000e+00	1.009808308610563e-05	-1.690700852980291e-02	-2.487887746145833e+00	2.521883685440737e+00	1.688782697387397e+02	3.377936911335066e+02	
420	3.800000000000000e+01	6.000000000000000e+00	9.138948357671373e-06	-1.578210497752786e-02	-3.486834644857328e+00	2.974107869130452e+00	1.689343252018026e+02	3.379304199146957e+02	
421	3.900000000000000e+01	6.000000000000000e+00	8.042392867474828e-06	-1.464629998522829e-02	-4.752436857167578e+00	3.278429021102331e+00	1.690317286007280e+02	3.381588323580436e+02	
422	4.000000000000000e+01	6.000000000000000e+00	6.789162077276531e-06	-1.350053700922619e-02	-6.264498713926884e+00	3.216036433707475e+00	1.691874866507526e+02	3.385077592958247e+02	
423	4.100000000000000e+01	6.000000000000000e+00	5.373128714572466e-06	-1.234576079908707e-02	-7.923666128966010e+00	2.428448814437274e+00	1.694090889289164e+02	3.389762881540588e+02	
424	4.200000000000000e+01	6.000000000000000e+00	3.816486539045787e-06	-1.118292377074814e-02	-9.496486862006094e+00	3.592692579859027e-01	1.696633300254212e+02	3.394697602879478e+02	
425	4.300000000000000e+01	6.000000000000000e+00	2.193246769509347e-06	-1.001300167093945e-02	-1.054814599300339e+01	-3.809725301963808e+00	1.698021658821679e+02	3.396711769734231e+02	
426	4.400000000000000e+01	6.000000000000000e+00	6.617070930606434e-07	-8.837028141649484e-03	-1.040120477339035e+01	-1.120483787862721e+01	1.694109006795822e+02	3.388227544047727e+02	
427	4.500000000000000e+01	6.000000000000000e+00	-5.010573792980384e-07	-7.656161402270472e-03	-8.212432932278780e+00	-2.319708761818158e+01	1.675293021833833e+02	3.353935125136757e+02	
428	4.600000000000000e+01	6.000000000000000e+00	-8.859666675039188e-07	-6.471801345437468e-03	-3.505104147001274e+00	-4.109375009460503e+01	1.623169811016648e+02	3.268028698160516e+02	
429	4.700000000000000e+01	6.000000000000000e+00	-4.253883217060330e-08	-5.285721392261143e-03	2.968201355999121e+00	-6.484363040880962e+01	1.510010510749678e+02	3.095217508193549e+02	
430	4.800000000000000e+01	6.000000000000000e+00	2.283941661606168e-06	-4.100080067133281e-03	8.710396614305376e+00	-9.113046000771541e+01	1.311836735309465e+02	2.807219646826994e+02	
431	4.900000000000000e+01	6.000000000000000e+00	5.844656824016445e-06	-2.917103139063913e-03	1.082114506232859e+01	-1.133179887882509e+02	1.032666417702189e+02	2.409699602920807e+02	
432	5.000000000000000e+01	6.000000000000000e+00	9.915833156023687e-06	-1.738510326067790e-03	8.814389839051662e+00	-1.274259534158617e+02	7.136912537921431e+01	1.973211579121526e+02	
433	5.100000000000000e+01	6.000000000000000e+00	1.391386092656164e-05	-5.654305328616731e-04	5.316683179769833e+00	-1.412798434244531e+02	3.788755710196834e+01	1.650224516392915e+02	
434	1.000000000000000e+00	5.000000000000000e+00	5.175783255121805e-05	-4.209370468899362e-02	4.692910013215446e+02	-1.395598124822222e+02	4.922533911014992e+01	6.167591503265647e+02	
435	2.000000000000000e+00	5.000000000000000e+00	1.022306723319685e-04	-4.201286884552170e-02	4.582979208134777e+02	-1.182962656689045e+02	9.214287522076040e+01	6.053280876525346e+02	
436	3.000000000000000e+00	5.000000000000000e+00	1.505090378139311e-04	-4.188023647278556e-02	4.430830046979750e+02	-9.007623170152507e+01	1.248144745346908e+02	5.887048356957686e+02	
437	4.000000000000000e+00	5.000000000000000e+00	1.962370984657803e-04	-4.169830276244079e-02	4.268015078701300e+02	-6.168023773791222e+01	1.465681051640478e+02	5.696869786100060e+02	
438	5.000000000000000e+00	5.000000000000000e+00	2.395431501521763e-04	-4.146963892472749e-02	4.118342410081625e+02	-3.772727907379227e+01	1.592131464662765e+02	5.509091253275498e+02	
439	6.000000000000000e+00	5.000000000000000e+00	2.808247219129603e-04	-4.119653437822803e-02	3.992564250576692e+02	-2.000412065294674e+01	1.655292604420581e+02	5.342089005618890e+02	
440	7.000000000000000e+00	5.000000000000000e+00	3.205325703708759e-04	-4.088088231490543e-02	3.890181766477888e+02	-8.230044693337806e+00	1.680623752702811e+02	5.203710188746523e+02	
441	8.000000000000000e+00	5.000000000000000e+00	3.590376962154210e-04	-4.052422585832648e-02	3.804712053413834e+02	-1.172094004249320e+00	1.686186538207951e+02	5.092942269462405e+02	
442	9.000000000000000e+00	5.000000000000000e+00	3.965875257198373e-04	-4.012786040206074e-02	3.728521868814054e+02	2.561223494230838e+00	1.682800890716410e+02	5.003880005336255e+02	
443	1.000000000000000e+01	5.000000000000000e+00	4.333171909044759e-04	-3.969292755973859e-02	3.655476838126469e+02	4.151131653311129e+00	1.676195299671391e+02	4.929428924513204e+02	
444	1.100000000000000e+01	5.000000000000000e+00	4.692808164918424e-04	-3.922048023665264e-02	3.581648980202484e+02	4.473814157398778e+00	1.669110297680818e+02	4.863481779929306e+02	
445	1.200000000000000e+01	5.000000000000000e+00	5.044826409520865e-04	-3.871152177707109e-02	3.505011175631292e+02	4.126163641727345e+00	1.662711756941233e+02	4.801666629107830e+02	
446	1.300000000000000e+01	5.000000000000000e+00	5.389006535189356e-04	-3.816702802079221e-02	3.424843887393605e+02	3.486817285548891e+00	1.657393886688282e+02	4.741281823271526e+02	
447	1.400000000000000e+01	5.000000000000000e+00	5.725021919378293e-04	-3.758795953182829e-02	3.341199946738707e+02	2.778524054045270e+00	1.653195025295411e+02	4.680911469136843e+02	
448	1.500000000000000e+01	5.000000000000000e+00	6.052531361616094e-04	-3.697526844807233e-02	3.254517191750518e+02	2.119737577794876e+00	1.650002789484516e+02	4.619999334803807e+02	
449	1.600000000000000e+01	5.000000000000000e+00	6.371226651154302e-04	-3.632990241363075e-02	3.165372430942709e+02	1.563230331321289e+00	1.647652492191103e+02	4.558497319478612e+02	
450	1.700000000000000e+01	5.000000000000000e+00	6.680852139669097e-04	-3.565280688298263e-02	3.074341790890448e+02	1.123138279486110e+00	1.645973449063072e+02	4.496616478227364e+02	
451	1.800000000000000e+01	5.000000000000000e+00	6.981208158455672e-04	-3.494492647358992e-02	2.981932213809660e+02	7.928995871756683e-01	1.644809897282864e+02	4.434669495363062e+02	
452	1.900000000000000e+01	5.000000000000000e+00	7.272146131464147e-04	-3.420720573700822e-02	2.888556465614079e+02	5.565317121662989e-01	1.644029287556107e+02	4.372981495004819e+02	
453	2.000000000000000e+01	5.000000000000000e+00	7.553560229628045e-04	-3.344058956617112e-02	2.794532359457752e+02	3.952955600811165e-01	1.643524107837150e+02	4.311846400487632e+02	
454	2.100000000000000e+01	5.000000000000000e+00	7.825378331419458e-04	-3.264602337657225e-02	2.700093747713904e+02	2.913209939017598e-01	1.643210369363810e+02	4.251510805030445e+02	
455	2.200000000000000e+01	5.000000000000000e+00	8.087553699525631e-04	-3.182445315280662e-02	2.605405745959494e+02	2.293332267137966e-01	1.643024458794117e+02	4.192172673817486e+02	
456	2.300000000000000e+01	5.000000000000000e+00	8.340057950598266e-04	-3.097682542210937e-02	2.510580003453155e+02	1.972695466352903e-01	1.642919329952966e+02	4.133986734934838e+02	
457	2.400000000000000e+01	5.000000000000000e+00	8.582875414752194e-04	-3.010408719577468e-02	2.415687896532971e+02	1.863090952053010e-01	1.642860588571266e+02	4.077071724407195e+02	
458	2.500000000000000e+01	5.000000000000000e+00	8.815998725570918e-04	-2.920718590454223e-02	2.320770761182775e+02	1.906475046683660e-01	1.642822752037765e+02	4.021516872520764e+02	
459	2.600000000000000e+01	5.000000000000000e+00	9.039425360090617e-04	-2.828706934347959e-02	2.225846922303510e+02	2.072147344253175e-01	1.642785792004573e+02	3.967386404598556e+02	
460	2.700000000000000e+01	5.000000000000000e+00	9.253154803394576e-04	-2.734468563434794e-02	2.130915579268232e+02	2.354431624413191e-01	1.642731959781899e+02	3.914721666480808e+02	
461	2.800000000000000e+01	5.000000000000000e+00	9.457186003996018e-04	-2.638098320777932e-02	2.035957705244192e+02	2.771294151454775e-01	1.642642847224915e+02	3.863541002294252e+02	
462	2.900000000000000e+01	5.000000000000000e+00	9.651514799492543e-04	-2.539691080281642e-02	1.940934084368219e+02	3.363828431188303e-01	1.642496648436124e+02	3.813837890785015e+02	
463	3.000000000000000e+01	5.000000000000000e+00	9.836131010198060e-04	-2.439341747600744e-02	1.845780623482626e+02	4.196095314662127e-01	1.642265666849195e+02	3.765578263219894e+02	
464	3.100000000000000e+01	5.000000000000000e+00	1.001101493479826e-03	-2.337145260526691e-02	1.750401080375007e+02	5.354267252330667e-01	1.641914280511159e+02	3.718698481750775e+02	
465	3.200000000000000e+01	5.000000000000000e+00	1.017613303903296e-03	-2.233196586329476e-02	1.654657511034841e+02	6.943342864554980e-01	1.641397853036680e+02	3.673106264158823e+02	
466	3.300000000000000e+01	5.000000000000000e+00	1.033143273671323e-03	-2.127590711994655e-02	1.558359126348785e+02	9.078735573027794e-01	1.640663531059446e+02	3.628688057388798e+02	
467	3.400000000000000e+01	5.000000000000000e+00	1.047683635228657e-03	-2.020422621058183e-02	1.461250964204818e+02	1.186867606585999e+00	1.639654504715534e+02	3.585327962196304e+02	
468	3.500000000000000e+01	5.000000000000000e+00	1.061223468955873e-03	-1.911787247693871e-02	1.363005078104297e+02	1.538146071235806e+00	1.638320210327271e+02	3.542945365147437e+02	
469	3.600000000000000e+01	5.000000000000000e+00	1.073748119713859e-03	-1.801779394877518e-02	1.263219179426702e+02	1.958890135278457e+00	1.636636040684520e+02	3.501560564550072e+02	
470	3.700000000000000e+01	5.000000000000000e+00	1.085238865884930e-03	-1.690493599387793e-02	1.161431433640643e+02	2.427354027166128e+00	1.634637197842859e+02	3.461399016111491e+02	
471	3.800000000000000e+01	5.000000000000000e+00	1.095673189159245e-03	-1.578023923761881e-02	1.057166681755935e+02	2.888176847707592e+00	1.632471658915619e+02	3.423043197438174e+02	
472	3.900000000000000e+01	5.000000000000000e+00	1.105026250565654e-03	-1.464463658314754e-02	9.500406700241467e+01	3.229699679788929e+00	1.630475021009952e+02	3.387631713497859e+02	
473	4.000000000000000e+01	5.000000000000000e+00	1.113274608229913e-03	-1.349904934356548e-02	8.399685198765803e+01	3.249528670216599e+00	1.629260789843286e+02	3.357078478018679e+02	
474	4.100000000000000e+01	5.000000000000000e+00	1.120403933119274e-03	-1.234438304346260e-02	7.275557210943492e+01	2.602881504812921e+00	1.629794027395557e+02	3.334224690515577e+02	
475	4.200000000000000e+01	5.000000000000000e+00	1.126423651851210e-03	-1.118152477036013e-02	6.147989781020943e+01	7.263507556250342e-01	1.633348364240435e+02	3.322710770416073e+02	
476	4.300000000000000e+01	5.000000000000000e+00	1.131393260541121e-03	-1.001134715304391e-02	5.062549388630720e+01	-3.272118730670194e+00	1.641102617611568e+02	3.326163927215123e+02	
477	4.400000000000000e+01	5.000000000000000e+00	1.135466947758412e-03	-8.834730119371928e-03	4.108148889856697e+01	-1.075659940715021e+01	1.652746164524899e+02	3.345892747433215e+02	
478	4.500000000000000e+01	5.000000000000000e+00	1.138963992723743e-03	-7.652627559383898e-03	3.432282849123496e+01	-2.373102216301069e+01	1.663053336030727e+02	3.376390165770281e+02	
479	4.600000000000000e+01	5.000000000000000e+00	1.142453868974683e-03	-6.466216228046316e-03	3.235907957748972e+01	-4.477466852447370e+01	1.653678364143869e+02	3.396111016703649e+02	
480	4.700000000000000e+01	5.000000000000000e+00	1.146812346290620e-03	-5.277231015452490e-03	3.563384766861403e+01	-7.672670984152808e+01	1.582742229674926e+02	3.358985166800298e+02	
481	4.800000000000000e+01	5.000000000000000e+00	1.152867144523023e-03	-4.088307341470167e-03	4.049775834453688e+01	-1.175474413207464e+02	1.383965644664988e+02	3.187361312461427e+02	
482	4.900000000000000e+01	5.000000000000000e+00	1.160639582659908e-03	-2.902728719576402e-03	3.973746880951242e+01	-1.538237507392159e+02	1.028771826701911e+02	2.824903619060560e+02	
483	5.000000000000000e+01	5.000000000000000e+00	1.168707974210817e-03	-1.722914976589951e-03	3.004729584812741e+01	-1.675876012012517e+02	6.029305792186743e+01	2.315179558176802e+02	
484	5.100000000000000e+01	5.000000000000000e+00	1.175355702005590e-03	-5.487714867391979e-04	1.817669982210042e+01	-1.679038038552294e+02	2.562449105482411e+01	1.930088392174924e+02	
485	1.000000000000000e+00	4.000000000000000e+00	9.331073698239609e-05	-4.206167650805910e-02	8.993375803999018e+02	-9.520926133216139e+01	4.086581362601080e+01	9.978995336668341e+02	
486	2.000000000000000e+00	4.000000000000000e+00	1.855807073853072e-04	-4.198278186093405e-02	8.887437567064743e+02	-8.217377936133579e+01	7.753811680912990e+01	9.832240335128165e+02	
487	3.000000000000000e+00	4.000000000000000e+00	2.759852938625413e-04	-4.185281219544656e-02	8.730628017169863e+02	-6.429602582024208e+01	1.071014084168261e+02	9.615219281438352e+02	
488	4.000000000000000e+00	4.000000000000000e+00	3.640375467286210e-04	-4.167368715394971e-02	8.544599157350706e+02	-4.549344533531297e+01	1.285341200657356e+02	9.359487871599449e+02	
489	5.000000000000000e+00	4.000000000000000e+00	4.495808905654297e-04	-4.144754018703370e-02	8.348254147674855e+02	-2.881332949890891e+01	1.424863155113505e+02	9.094400920511669e+02	
490	6.000000000000000e+00	4.000000000000000e+00	5.326893393317299e-04	-4.117644585597174e-02	8.153692790581588e+02	-1.582556245576090e+01	1.505551576895011e+02	8.840544590617661e+02	
491	7.000000000000000e+00	4.000000000000000e+00	6.135426875454249e-04	-4.086227417026142e-02	7.965862094280468e+02	-6.782121216090292e+00	1.545437118969519e+02	8.607762254090781e+02	
492	8.000000000000000e+00	4.000000000000000e+00	6.923292710810077e-04	-4.050665501440980e-02	7.784674922462135e+02	-1.135701052703727e+00	1.559952300068554e+02	8.397137525022653e+02	
493	9.000000000000000e+00	4.000000000000000e+00	7.691946010450588e-04	-4.011100612270386e-02	7.607705519372964e+02	1.960007193463454e+00	1.560311666675658e+02	8.204732431353258e+02	
494	1.000000000000000e+01	4.000000000000000e+00	8.442280161435788e-04	-3.967658286807643e-02	7.432196674747676e+02	3.332632297904450e+00	1.553795801858882e+02	8.024986483339272e+02	
495	1.100000000000000e+01	4.000000000000000e+00	9.174705034609060e-04	-3.920452611788051e-02	7.256051658371847e+02	3.650841017327309e+00	1.544735283373808e+02	7.852810522062114e+02	
496	1.200000000000000e+01	4.000000000000000e+00	9.889296018963352e-04	-3.869589976195462e-02	7.078065165874601e+02	3.395493416125250e+00	1.535497725135060e+02	7.684432445672774e+02	
497	1.300000000000000e+01	4.000000000000000e+00	1.058593574304834e-03	-3.815171755966203e-02	6.897775150279540e+02	2.882698761133428e+00	1.527237102243942e+02	7.517463769603736e+02	
498	1.400000000000000e+01	4.000000000000000e+00	1.126441968053573e-03	-3.757296155214177e-02	6.715208193827218e+02	2.302930445630958e+00	1.520398093076762e+02	7.350625805539788e+02	
499	1.500000000000000e+01	4.000000000000000e+00	1.192452351575994e-03	-3.696059442221412e-02	6.530651391688787e+02	1.759309663142318e+00	1.515035464316746e+02	7.183401574975838e+02	
500	1.600000000000000e+01	4.000000000000000e+00	1.256604018780632e-03	-3.631556764411816e-02	6.344490719006843e+02	1.298676828719151e+00	1.511009114942831e+02	7.015734919432163e+02	
501	1.700000000000000e+01	4.000000000000000e+00	1.318879631089252e-03	-3.563882673472386e-02	6.157113728778749e+02	9.343208292435374e-01	1.508099204530271e+02	6.847812440143193e+02	
502	1.800000000000000e+01	4.000000000000000e+00	1.379265613671569e-03	-3.493131452407846e-02	5.968860425137289e+02	6.614065445114239e-01	1.506070937505639e+02	6.679923676873789e+02	
503	1.900000000000000e+01	4.000000000000000e+00	1.437751890346675e-03	-3.419397309189988e-02	5.780005270577642e+02	4.667820331732475e-01	1.504708094844854e+02	6.512381167206005e+02	
504	2.000000000000000e+01	4.000000000000000e+00	1.494331332097957e-03	-3.342774482764387e-02	5.590756886477665e+02	3.347975830576466e-01	1.503827609099293e+02	6.345480931051300e+02	
505	2.100000000000000e+01	4.000000000000000e+00	1.548999137089903e-03	-3.263357293624481e-02	5.401266292968854e+02	2.504701816646495e-01	1.503283099815262e+02	6.179487602614075e+02	
506	2.200000000000000e+01	4.000000000000000e+00	1.601752254174918e-03	-3.181240161239950e-02	5.211638090836428e+02	2.009862933344184e-01	1.502962408911505e+02	6.014633013191157e+02	
507	2.300000000000000e+01	4.000000000000000e+00	1.652588896291491e-03	-3.096517603363006e-02	5.021941489548379e+02	1.762355939363900e-01	1.502782253416396e+02	5.851120964247484e+02	
508	2.400000000000000e+01	4.000000000000000e+00	1.701508152356153e-03	-3.009284226982193e-02	4.832219685606048e+02	1.688351767133138e-01	1.502681823245027e+02	5.689133819382663e+02	
509	2.500000000000000e+01	4.000000000000000e+00	1.748509686645461e-03	-2.919634717001843e-02	4.642497027256823e+02	1.739343855400755e-01	1.502616296696970e+02	5.528838469013776e+02	
510	2.600000000000000e+01	4.000000000000000e+00	1.793593505518127e-03	-2.827663826179575e-02	4.452783863652555e+02	1.889722497445447e-01	1.502550696856784e+02	5.370390399427970e+02	
511	2.700000000000000e+01	4.000000000000000e+00	1.836759768143621e-03	-2.733466368139677e-02	4.263079167392348e+02	2.134803907452785e-01	1.502454188948629e+02	5.213935291914431e+02	
512	2.800000000000000e+01	4.000000000000000e+00	1.878008617372501e-03	-2.637137214077442e-02	4.073371059431666e+02	2.489693661595087e-01	1.502294752162783e+02	5.059608006918852e+02	
513	2.900000000000000e+01	4.000000000000000e+00	1.917340007579074e-03	-2.538771292828344e-02	3.883635306036651e+02	2.988953111109396e-01	1.502034132908213e+02	4.907529140225212e+02	
514	3.000000000000000e+01	4.000000000000000e+00	1.954753507267789e-03	-2.438463593040305e-02	3.693831782178285e+02	3.686670132902172e-01	1.501623064365332e+02	4.757799728623321e+02	
515	3.100000000000000e+01	4.000000000000000e+00	1.990248055521541e-03	-2.336309165004633e-02	3.503898831026810e+02	4.656125207872650e-01	1.500996971912968e+02	4.610495326208956e+02	
516	3.200000000000000e+01	4.000000000000000e+00	2.023821653460958e-03	-2.232403118018808e-02	3.313745421724178e+02	5.987703659015056e-01	1.500072759846535e+02	4.465661682299058e+02	
517	3.300000000000000e+01	4.000000000000000e+00	2.055470976019865e-03	-2.126840606660718e-02	3.123241069834090e+02	7.782954896009500e-01	1.498747903293869e+02	4.323315900607381e+02	
518	3.400000000000000e+01	4.000000000000000e+00	2.085190897000974e-03	-2.019716795723953e-02	2.932203691476025e+02	1.014162633098376e+00	1.496904000696767e+02	4.183459460992499e+02	
519	3.500000000000000e+01	4.000000000000000e+00	2.112973935192644e-03	-1.911126788440845e-02	2.740386033697405e+02	1.313694144486224e+00	1.494418314196775e+02	4.046113196935947e+02	
520	3.600000000000000e+01	4.000000000000000e+00	2.138809655952330e-03	-1.801165495680413e-02	2.547462312842137e+02	1.677210468267655e+00	1.491188743252176e+02	3.911389574266694e+02	
521	3.700000000000000e+01	4.000000000000000e+00	2.162684110784333e-03	-1.689927414939124e-02	2.353018778284825e+02	2.090752268774782e+00	1.487180266652200e+02	3.779624781715959e+02	
522	3.800000000000000e+01	4.000000000000000e+00	2.184579486936641e-03	-1.577506277568559e-02	2.156556250645301e+02	2.514262346124680e+00	1.482504114215440e+02	3.651602092891381e+02	
523	3.900000000000000e+01	4.000000000000000e+00	2.204474307962766e-03	-1.463994512635397e-02	1.957522045303529e+02	2.862671310203295e+00	1.477544297886660e+02	3.528907169572224e+02	
524	4.000000000000000e+01	4.000000000000000e+00	2.222344859367091e-03	-1.349482471505787e-02	1.755408755243149e+02	2.975660835186955e+00	1.473148014944686e+02	3.414459785648727e+02	
525	4.100000000000000e+01	4.000000000000000e+00	2.238169184457001e-03	-1.234057371494878e-02	1.550001043397394e+02	2.568895042421194e+00	1.470890200120076e+02	3.313246033729066e+02	
526	4.200000000000000e+01	4.000000000000000e+00	2.251936381937097e-03	-1.117801988892170e-02	1.341941622650659e+02	1.153954567339872e+00	1.473395316438797e+02	3.233194197761795e+02	
527	4.300000000000000e+01	4.000000000000000e+00	2.263666741898058e-03	-1.000793326598981e-02	1.133986909940868e+02	-2.094469852435252e+00	1.484579552344762e+02	3.185870808616187e+02	
528	4.400000000000000e+01	4.000000000000000e+00	2.273454149730048e-03	-8.831021458033118e-03	9.335978084035435e+01	-8.565137309442662e+00	1.509430560183400e+02	3.186281744925670e+02	
529	4.500000000000000e+01	4.000000000000000e+00	2.281551662228922e-03	-7.647953783660845e-03	7.583250766411103e+01	-2.056221850947400e+01	1.551626670047833e+02	3.249519290021671e+02	
530	4.600000000000000e+01	4.000000000000000e+00	2.288542752804634e-03	-6.459494655441495e-03	6.423895663917506e+01	-4.196431106718618e+01	1.606585117617051e+02	3.384135985409758e+02	
531	4.700000000000000e+01	4.000000000000000e+00	2.295597955193385e-03	-5.266824788892861e-03	6.476729590035663e+01	-7.826901207565741e+01	1.633874157889271e+02	3.567088111501371e+02	
532	4.800000000000000e+01	4.000000000000000e+00	2.304868143867584e-03	-4.072731445287090e-03	7.584129283773264e+01	-1.393613454580224e+02	1.522343381295665e+02	3.728449414333555e+02	
533	4.900000000000000e+01	4.000000000000000e+00	2.317799801285161e-03	-2.882555551189592e-03	8.145437760797360e+01	-2.126783666747977e+02	1.088410003213264e+02	3.659228397669406e+02	
534	5.000000000000000e+01	4.000000000000000e+00	2.332580803599726e-03	-1.701804783068178e-03	6.672597435176986e+01	-2.384474100840542e+02	4.030322517437968e+01	3.156393422972527e+02	
535	5.100000000000000e+01	4.000000000000000e+00	2.344092016298723e-03	-5.293862966450339e-04	4.437480252963006e+01	-1.867230336596638e+02	-5.606001004434147e+00	2.313696585129964e+02	
536	1.000000000000000e+00	3.000000000000000e+00	1.358768363429069e-04	-4.202070023451335e-02	1.336291252035081e+03	-5.894510592769606e+01	3.279819478743831e+01	1.396777498711406e+03	
537	2.000000000000000e+00	3.000000000000000e+00	2.707988277463184e-04	-4.194309911877462e-02	1.324928123264468e+03	-5.140589283269013e+01	6.270991186071622e+01	1.382036705752944e+03	
538	3.000000000000000e+00	3.000000000000000e+00	4.039450702974304e-04	-4.181497034659119e-02	1.307377916289879e+03	-4.085531964051798e+01	8.758699245373461e+01	1.359565659854540e+03	
539	4.000000000000000e+00	3.000000000000000e+00	5.347146114336574e-04	-4.163789631308051e-02	1.285274987216371e+03	-2.945165438508157e+01	1.064351635254497e+02	1.331848309033500e+03	
540	5.000000000000000e+00	3.000000000000000e+00	6.627429459328755e-04	-4.141372594518864e-02	1.260231727725733e+03	-1.901248886425014e+01	1.193867839653174e+02	1.301337228554245e+03	
541	6.000000000000000e+00	3.000000000000000e+00	7.878607674161450e-04	-4.114436258000716e-02	1.233535802115766e+03	-1.061826773715439e+01	1.273499051027447e+02	1.269957220874112e+03	
542	7.000000000000000e+00	3.000000000000000e+00	9.100261310275206e-04	-4.083161970832136e-02	1.206038998190772e+03	-4.595548909722886e+00	1.315633525340106e+02	1.238899378300423e+03	
543	8.000000000000000e+00	3.000000000000000e+00	1.029259949234831e-03	-4.047715072122675e-02	1.178205598724411e+03	-7.378936190764414e-01	1.332423823985495e+02	1.208686017131010e+03	
544	9.000000000000000e+00	3.000000000000000e+00	1.145601047981659e-03	-4.008243505584793e-02	1.150236114255771e+03	1.419972158900404e+00	1.333845315836906e+02	1.179383000303777e+03	
545	1.000000000000000e+01	3.000000000000000e+00	1.259082828334224e-03	-3.964879659350538e-02	1.122190793425565e+03	2.390936819725791e+00	1.327135524278863e+02	1.150827209813261e+03	
546	1.100000000000000e+01	3.000000000000000e+00	1.369725679070773e-03	-3.917743473983780e-02	1.094075394166817e+03	2.618578112251885e+00	1.317046522750436e+02	1.122792252839112e+03	
547	1.200000000000000e+01	3.000000000000000e+00	1.477537800538328e-03	-3.866945642535036e-02	1.065885692057358e+03	2.435772357331759e+00	1.306410296718694e+02	1.095077187345667e+03	
548	1.300000000000000e+01	3.000000000000000e+00	1.582519002336844e-03	-3.812590366525050e-02	1.037623393151010e+03	2.067164097308533e+00	1.296722640724193e+02	1.067537487777638e+03	
549	1.400000000000000e+01	3.000000000000000e+00	1.684664565144463e-03	-3.754777513971829e-02	1.009297667220571e+03	1.650193472281108e+00	1.288623193724634e+02	1.040084333488162e+03	
550	1.500000000000000e+01	3.000000000000000e+00	1.783968087923454e-03	-3.693604206878955e-02	9.809218345850938e+02	1.259805981434225e+00	1.282246500532877e+02	1.012671681154850e+03	
551	1.600000000000000e+01	3.000000000000000e+00	1.880423208679760e-03	-3.629165932811304e-02	9.525098275076361e+02	9.300449400457342e-01	1.277459392886837e+02	9.852817782798863e+02	
552	1.700000000000000e+01	3.000000000000000e+00	1.974024451644677e-03	-3.561557288195032e-02	9.240739119745940e+02	6.704151353708383e-01	1.274011142064277e+02	9.579134582931081e+02	
553	1.800000000000000e+01	3.000000000000000e+00	2.064767512755368e-03	-3.490872451521573e-02	8.956237151530092e+02	4.771751069842924e-01	1.271621816462035e+02	9.305741291914676e+02	
554	1.900000000000000e+01	3.000000000000000e+00	2.152649236180805e-03	-3.417205467324206e-02	8.671661460259090e+02	3.405558467431167e-01	1.270029419487702e+02	9.032749265002490e+02	
555	2.000000000000000e+01	3.000000000000000e+00	2.237667451504857e-03	-3.340650403404877e-02	8.387057813070921e+02	2.490370340872339e-01	1.269011040912508e+02	8.760281233471908e+02	
556	2.100000000000000e+01	3.000000000000000e+00	2.319820771095207e-03	-3.261301427251346e-02	8.102454123860466e+02	1.916545588571577e-01	1.268388636974311e+02	8.488459695057597e+02	
557	2.200000000000000e+01	3.000000000000000e+00	2.399108398271763e-03	-3.179252834002950e-02	7.817865811933584e+02	1.590787258051769e-01	1.268026452013234e+02	8.217403458111788e+02	
558	2.300000000000000e+01	3.000000000000000e+00	2.475529966952245e-03	-3.094599047841618e-02	7.533300256892014e+02	1.439807324800046e-01	1.267824461727139e+02	7.947228277504660e+02	
559	2.400000000000000e+01	3.000000000000000e+00	2.549085416751650e-03	-3.007434610977815e-02	7.248760139984654e+02	1.410299740684824e-01	1.267710391165527e+02	7.678049117475122e+02	
560	2.500000000000000e+01	3.000000000000000e+00	2.619774899377091e-03	-2.917854168981316e-02	6.964245736259379e+02	1.467366367552199e-01	1.267631634120473e+02	7.409982622619656e+02	
561	2.600000000000000e+01	3.000000000000000e+00	2.687598708744747e-03	-2.825952457509377e-02	6.679756312972181e+02	1.592655679915236e-01	1.267547641212562e+02	7.143149020183839e+02	
562	2.700000000000000e+01	3.000000000000000e+00	2.752557226352416e-03	-2.731824293029677e-02	6.395290789600394e+02	1.782888552494075e-01	1.267422886604961e+02	6.877673034880485e+02	
563	2.800000000000000e+01	3.000000000000000e+00	2.814650873214192e-03	-2.635564568455021e-02	6.110847751998697e+02	2.049048477424780e-01	1.267220291242184e+02	6.613683592846492e+02	
564	2.900000000000000e+01	3.000000000000000e+00	2.873880060147314e-03	-2.537268253334976e-02	5.826424824819819e+02	2.416226306406895e-01	1.266894923482565e+02	6.351312237966398e+02	
565	3.000000000000000e+01	3.000000000000000e+00	2.930245127859272e-03	-2.437030397030159e-02	5.542017287582295e+02	2.923856074648707e-01	1.266387872695865e+02	6.090690356553663e+02	
566	3.100000000000000e+01	3.000000000000000e+00	2.983746267771180e-03	-2.334946131807825e-02	5.257615681602414e+02	3.625805791252059e-01	1.265620407297528e+02	5.831945616738726e+02	
567	3.200000000000000e+01	3.000000000000000e+00	3.034383413320816e-03	-2.231110670696085e-02	4.973201983415653e+02	4.589433963112937e-01	1.264488931491131e+02	5.575198624087899e+02	
568	3.300000000000000e+01	3.000000000000000e+00	3.082156089391260e-03	-2.125619291850277e-02	4.688743662747298e+02	5.892221360357111e-01	1.262861879881856e+02	5.320561824914236e+02	
569	3.400000000000000e+01	3.000000000000000e+00	3.127063204301050e-03	-2.018567296674862e-02	4.404184605245491e+02	7.613868842137856e-01	1.260580669847131e+02	5.068144506717156e+02	
570	3.500000000000000e+01	3.000000000000000e+00	3.169102764264630e-03	-1.910049922496951e-02	4.119431431643463e+02	9.820695861773157e-01	1.257468286366182e+02	4.818070813564174e+02	
571	3.600000000000000e+01	3.000000000000000e+00	3.208271484456927e-03	-1.800162181579526e-02	3.834333176889003e+02	1.253755096431286e+00	1.253351260477622e+02	4.570522873249895e+02	
572	3.700000000000000e+01	3.000000000000000e+00	3.244564264641056e-03	-1.688998585960425e-02	3.548651775403980e+02	1.569984342368388e+00	1.248104060614203e+02	4.325829901668575e+02	
573	3.800000000000000e+01	3.000000000000000e+00	3.277973497016409e-03	-1.576652701144181e-02	3.262020840591597e+02	1.907383769433226e+00	1.241729847841253e+02	4.084639191370493e+02	
574	3.900000000000000e+01	3.000000000000000e+00	3.308488195653541e-03	-1.463216450168668e-02	2.973892337230087e+02	2.212516825959331e+00	1.234499120754958e+02	3.848230987920443e+02	
575	4.000000000000000e+01	3.000000000000000e+00	3.336093027785036e-03	-1.348779062185259e-02	2.683479038959526e+02	2.379979666720346e+00	1.227179337109804e+02	3.619084162270572e+02	
576	4.100000000000000e+01	3.000000000000000e+00	3.360767610796089e-03	-1.233425528512726e-02	2.389725896158939e+02	2.214998961115390e+00	1.221407007100468e+02	3.401875362390877e+02	
577	4.200000000000000e+01	3.000000000000000e+00	3.382487224009103e-03	-1.117234396525045e-02	2.091416950107673e+02	1.367458532639523e+00	1.220274200355751e+02	3.205197315396099e+02	
578	4.300000000000000e+01	3.000000000000000e+00	3.401228221314917e-03	-1.000274758938456e-02	1.787711989680449e+02	-7.897278637199019e-01	1.229241190708815e+02	3.044396206837924e+02	
579	4.400000000000000e+01	3.000000000000000e+00	3.416986809770935e-03	-8.826023483766675e-03	1.480008473238695e+02	-5.388685014526492e+00	1.257336332512665e+02	2.945575236744900e+02	
580	4.500000000000000e+01	3.000000000000000e+00	3.429835452236584e-03	-7.642559496701244e-03	1.177089171671690e+02	-1.453432420686459e+01	1.318742868572179e+02	2.950450559245318e+02	
581	4.600000000000000e+01	3.000000000000000e+00	3.440072782194684e-03	-6.452551971802338e-03	9.116135598641384e+01	-3.209997794098953e+01	1.430065285596457e+02	3.114431333073277e+02	
582	4.700000000000000e+01	3.000000000000000e+00	3.448657754516218e-03	-5.256267413912273e-03	7.668440777003386e+01	-6.616019234804283e+01	1.604214708684669e+02	3.512047451918933e+02	
583	4.800000000000000e+01	3.000000000000000e+00	3.458040194441821e-03	-4.054463753472320e-03	1.002165014202167e+02	-1.282227624176511e+02	1.739582873024578e+02	4.162096108304141e+02	
584	4.900000000000000e+01	3.000000000000000e+00	3.475058567058878e-03	-2.853900651338260e-03	1.408274118463384e+02	-2.689431565198643e+02	1.503729713492474e+02	5.082912951731194e+02	
585	5.000000000000000e+01	3.000000000000000e+00	3.501012548943208e-03	-1.669837669173041e-03	1.300566380294337e+02	-4.033941985816849e+02	3.395082811868294e+01	5.377549906796586e+02	
586	5.100000000000000e+01	3.000000000000000e+00	3.523917632811944e-03	-5.073890054812235e-04	9.908922634145770e+01	-2.357962689709380e+02	-7.288176716175209e+01	3.652332171491361e+02	
587	1.000000000000000e+00	2.000000000000000e+00	1.798689431972862e-04	-4.196970982802167e-02	1.784298529458049e+03	-3.111356697415274e+01	2.396794594444723e+01	1.816044858918288e+03	
588	2.000000000000000e+00	2.000000000000000e+00	3.587351314667732e-04	-4.189299698673501e-02	1.770918999027349e+03	-2.728118469730799e+01	4.599362609157085e+01	1.800551458668037e+03	
589	3.000000000000000e+00	2.000000000000000e+00	5.356920845580217e-04	-4.176617783370334e-02	1.749802095793436e+03	-2.185521481289647e+01	6.457532444294011e+01	1.776358498820694e+03	
590	4.000000000000000e+00	2.000000000000000e+00	7.099991741967336e-04	-4.159064281765076e-02	1.722429256922844e+03	-1.589727242366731e+01	7.892421713839730e+01	1.745478516291026e+03	
591	5.000000000000000e+00	2.000000000000000e+00	8.811100353628143e-04	-4.136806567944363e-02	1.690408567898712e+03	-1.034350550928988e+01	8.899244420461106e+01	1.710039834537097e+03	
592	6.000000000000000e+00	2.000000000000000e+00	1.048662027159078e-03	-4.110022813253100e-02	1.655218772295336e+03	-5.794428211387810e+00	9.529879593267418e+01	1.671912765153272e+03	
593	7.000000000000000e+00	2.000000000000000e+00	1.212440828506158e-03	-4.078888418064017e-02	1.618056804004051e+03	-2.475235063676720e+00	9.866431401430913e+01	1.632501968478037e+03	
594	8.000000000000000e+00	2.000000000000000e+00	1.372337002288080e-03	-4.043567746488410e-02	1.579794002768077e+03	-3.209979735264952e-01	9.996778030258835e+01	1.592713924081516e+03	
595	9.000000000000000e+00	2.000000000000000e+00	1.528306918581017e-03	-4.004210700217786e-02	1.541008656086469e+03	8.928604502624005e-01	9.998242392882199e+01	1.553043014326028e+03	
596	1.000000000000000e+01	2.000000000000000e+00	1.680343632454894e-03	-3.960952734296436e-02	1.502052853255342e+03	1.436783402306922e+00	9.930227934585903e+01	1.513701542522271e+03	
597	1.100000000000000e+01	2.000000000000000e+00	1.828457991202998e-03	-3.913916791504398e-02	1.463121944423001e+03	1.555887984914513e+00	9.833516549657350e+01	1.474738809560844e+03	
598	1.200000000000000e+01	2.000000000000000e+00	1.972667671002035e-03	-3.863215961589169e-02	1.424311018369027e+03	1.439428215673328e+00	9.733170689778545e+01	1.436125832486861e+03	
599	1.300000000000000e+01	2.000000000000000e+00	2.112991413814531e-03	-3.808956120624810e-02	1.385655058128281e+03	1.217228630796013e+00	9.642625615279141e+01	1.397805492637042e+03	
600	1.400000000000000e+01	2.000000000000000e+00	2.249446314113842e-03	-3.751238183936528e-02	1.347155338348380e+03	9.692755739004024e-01	9.567569486736133e+01	1.359717717013964e+03	
601	1.500000000000000e+01	2.000000000000000e+00	2.382046765304144e-03	-3.690159856276150e-02	1.308795997100068e+03	7.391155369093685e-01	9.509025662336848e+01	1.321809908051656e+03	
602	1.600000000000000e+01	2.000000000000000e+00	2.510804261578956e-03	-3.625816899851427e-02	1.270554087143652e+03	5.462437622086025e-01	9.465539085109566e+01	1.284039911497722e+03	
603	1.700000000000000e+01	2.000000000000000e+00	2.635727614734542e-03	-3.558304000301496e-02	1.232405412187711e+03	3.957251361968517e-01	9.434592187233784e+01	1.246375738244505e+03	
604	1.800000000000000e+01	2.000000000000000e+00	2.756823348175702e-03	-3.487715325322121e-02	1.194327661275924e+03	2.848952978449226e-01	9.413442200141964e+01	1.208794144843011e+03	
605	1.900000000000000e+01	2.000000000000000e+00	2.874096139731164e-03	-3.414144863060038e-02	1.156301841185081e+03	2.076460236132416e-01	9.399562292148059e+01	1.171279000323847e+03	
606	2.000000000000000e+01	2.000000000000000e+00	2.987549245469775e-03	-3.337686611239601e-02	1.118312678029869e+03	1.569479760759105e-01	9.390831665543956e+01	1.133819793618177e+03	
607	2.100000000000000e+01	2.000000000000000e+00	3.097184871506068e-03	-3.258434670537585e-02	1.080348440769582e+03	1.261938699406358e-01	9.385578752405840e+01	1.096410387630450e+03	
608	2.200000000000000e+01	2.000000000000000e+00	3.203004481758008e-03	-3.176483280311165e-02	1.042400487583685e+03	1.098095148109373e-01	9.382546652243182e+01	1.059048030195930e+03	
609	2.300000000000000e+01	2.000000000000000e+00	3.305009042010882e-03	-3.091926822529108e-02	1.004462724198040e+03	1.034455965881573e-01	9.380823501136842e+01	1.021732597276128e+03	
610	2.400000000000000e+01	2.000000000000000e+00	3.403199207574025e-03	-3.004859810649498e-02	9.665310892414150e+02	1.039562550636219e-01	9.379762073761187e+01	9.844660369948607e+02	
611	2.500000000000000e+01	2.000000000000000e+00	3.497575465385906e-03	-2.915376873767340e-02	9.286031283368820e+02	1.092918596092911e-01	9.378900765720775e+01	9.472519813679883e+02	
612	2.600000000000000e+01	2.000000000000000e+00	3.588138242657023e-03	-2.823572741990023e-02	8.906776864144433e+02	1.183802631019617e-01	9.377890642650749e+01	9.100954955030627e+02	
613	2.700000000000000e+01	2.000000000000000e+00	3.674887994321596e-03	-2.729542236110061e-02	8.527547280917672e+02	1.310354668065319e-01	9.376428858006692e+01	8.730029372671822e+02	
614	2.800000000000000e+01	2.000000000000000e+00	3.757825281153999e-03	-2.633380262686802e-02	8.148352878822607e+02	1.479104112667162e-01	9.374196654224228e+01	8.359819066076690e+02	
615	2.900000000000000e+01	2.000000000000000e+00	3.836950849734456e-03	-2.535181814187180e-02	7.769215395572054e+02	1.704927612204923e-01	9.370799427388215e+01	7.990412639294632e+02	
616	3.000000000000000e+01	2.000000000000000e+00	3.912265724550773e-03	-2.435041972460935e-02	7.390169720832225e+02	2.011302532387145e-01	9.365706985488649e+01	7.621912063742011e+02	
617	3.100000000000000e+01	2.000000000000000e+00	3.983771321290304e-03	-2.333055912182637e-02	7.011266437647377e+02	2.430564975784204e-01	9.358193730180776e+01	7.254433946608925e+02	
618	3.200000000000000e+01	2.000000000000000e+00	4.051469587813621e-03	-2.229318898601657e-02	6.632574645455990e+02	3.003694832550483e-01	9.347281666816309e+01	6.888111350123644e+02	
619	3.300000000000000e+01	2.000000000000000e+00	4.115363174575296e-03	-2.123926270599374e-02	6.254184142233260e+02	3.778880401632838e-01	9.331694044791362e+01	6.523096387986020e+02	
620	3.400000000000000e+01	2.000000000000000e+00	4.175455627079010e-03	-2.016973395183513e-02	5.876205365113699e+02	4.807732913593687e-01	9.309835093959292e+01	6.159564216279723e+02	
621	3.500000000000000e+01	2.000000000000000e+00	4.231751576720257e-03	-1.908555572575882e-02	5.498764342781330e+02	6.137439274629264e-01	9.279822873286554e+01	5.797719793462642e+02	
622	3.600000000000000e+01	2.000000000000000e+00	4.284256878022571e-03	-1.798767861200570e-02	5.121988131019332e+02	7.796240855618510e-01	9.239620085569139e+01	5.437810392284969e+02	
623	3.700000000000000e+01	2.000000000000000e+00	4.332978593644701e-03	-1.687704778105208e-02	4.745973414233758e+02	9.768122902350491e-01	9.187335421747713e+01	5.080150179640719e+02	
624	3.800000000000000e+01	2.000000000000000e+00	4.377924653568253e-03	-1.575459811002010e-02	4.370726705475481e+02	1.194989223821048e+00	9.121813476518903e+01	4.725170319854188e+02	
625	3.900000000000000e+01	2.000000000000000e+00	4.419102899534526e-03	-1.462124650423718e-02	3.996058204152177e+02	1.407858999416671e+00	9.043708769246228e+01	4.373523565694784e+02	
626	4.000000000000000e+01	2.000000000000000e+00	4.456519055321803e-03	-1.347788009721032e-02	3.621402330472546e+02	1.560649782083661e+00	8.957382367789266e+01	4.026307432633494e+02	
627	4.100000000000000e+01	2.000000000000000e+00	4.490172931145190e-03	-1.232533836449778e-02	3.245526728212690e+02	1.547828120723968e+00	8.874222831316688e+01	3.685551004177912e+02	
628	4.200000000000000e+01	2.000000000000000e+00	4.520051913619504e-03	-1.116438620004944e-02	2.866082730811449e+02	1.171387738866281e+00	8.818577756755482e+01	3.355311326459560e+02	
629	4.300000000000000e+01	2.000000000000000e+00	4.546120691191926e-03	-9.995673026633616e-03	2.478979438012690e+02	5.899955020250403e-02	8.838368703130840e+01	3.044188673858379e+02	
630	4.400000000000000e+01	2.000000000000000e+00	4.568307161318759e-03	-8.819671320101221e-03	2.077694457959051e+02	-2.508295736039309e+00	9.026031956569170e+01	2.771361213125752e+02	
631	4.500000000000000e+01	2.000000000000000e+00	4.586488768107456e-03	-7.636576318293821e-03	1.653719970736570e+02	-7.956695162302987e+00	9.553229678219624e+01	2.579699875298571e+02	
632	4.600000000000000e+01	2.000000000000000e+00	4.600509108038296e-03	-6.446181688704312e-03	1.201106252874410e+02	-1.934212225987311e+01	1.076687547798137e+02	2.565488488024017e+02	
633	4.700000000000000e+01	2.000000000000000e+00	4.610310818202786e-03	-5.247554359146137e-03	7.568990503289581e+01	-4.276577899581768e+01	1.318253092350891e+02	2.890387477457267e+02	
634	4.800000000000000e+01	2.000000000000000e+00	4.616846679490744e-03	-4.039631509438722e-03	4.832476249646730e+01	-9.571736174088997e+01	1.813857339690483e+02	3.903220100183588e+02	
635	4.900000000000000e+01	2.000000000000000e+00	4.624356942037982e-03	-2.818895964589371e-03	1.742264356153710e+02	-1.873995692966145e+02	2.224019002158286e+02	5.732571746668757e+02	
636	5.000000000000000e+01	2.000000000000000e+00	4.661600190586621e-03	-1.611946200329923e-03	2.707523606373708e+02	-6.325812510300876e+02	1.514414174324750e+02	9.527589546280859e+02	
637	5.100000000000000e+01	2.000000000000000e+00	4.715179152314283e-03	-4.749209742010454e-04	1.476165166150292e+02	-6.817738178924501e+02	-1.443242154119263e+02	8.781834908443115e+02	
638	1.000000000000000e+00	1.000000000000000e+00	2.258285830825465e-04	-4.190742255492291e-02	2.248281370726032e+03	-1.312541153883220e+01	1.323417004509554e+01	2.261561674573713e+03	
639	2.000000000000000e+00	1.000000000000000e+00	4.504587158773960e-04	-4.183138294637064e-02	2.231283836324617e+03	-1.153637701679248e+01	2.542214998958342e+01	2.243396454533433e+03	
640	3.000000000000000e+00	1.000000000000000e+00	6.727855574457840e-04	-4.170559386007359e-02	2.204297053647767e+03	-9.271642057508316e+00	3.574225289967505e+01	2.214722647460790e+03	
641	4.000000000000000e+00	1.000000000000000e+00	8.918711611081269e-04	-4.153133696079207e-02	2.169059285100765e+03	-6.762592608312492e+00	4.374228802412238e+01	2.177579939879085e+03	
642	5.000000000000000e+00	1.000000000000000e+00	1.106984496680963e-03	-4.131017798871982e-02	2.127544557654799e+03	-4.399993745535898e+00	4.936544930039736e+01	2.134229453593052e+03	
643	6.000000000000000e+00	1.000000000000000e+00	1.317606210283983e-03	-4.104381195470917e-02	2.081673930903232e+03	-2.445428549986104e+00	5.287117411692207e+01	2.086800169795301e+03	
644	7.000000000000000e+00	1.000000000000000e+00	1.523405551683951e-03	-4.073393592542677e-02	2.033104870570397e+03	-1.007477900482439e+00	5.470136490781771e+01	2.037052282955160e+03	
645	8.000000000000000e+00	1.000000000000000e+00	1.724201547264946e-03	-4.038216434629142e-02	1.983123906740759e+03	-6.993644839313617e-02	5.534723666679207e+01	1.986280716839883e+03	
646	9.000000000000000e+00	1.000000000000000e+00	1.919920128294574e-03	-3.998998715044987e-02	1.932632151535399e+03	4.569679037460865e-01	5.525290841522674e+01	1.935332652490361e+03	
647	1.000000000000000e+01	1.000000000000000e+00	2.110555468246961e-03	-3.955876140870092e-02	1.882193262098722e+03	6.881115685098180e-01	5.476615691211041e+01	1.884690679990593e+03	
648	1.100000000000000e+01	1.000000000000000e+00	2.296139609397592e-03	-3.908972402348963e-02	1.832110366267905e+03	7.308421959195002e-01	5.412818119491168e+01	1.834576354690098e+03	
649	1.200000000000000e+01	1.000000000000000e+00	2.476721148228243e-03	-3.858401424877766e-02	1.782506178662653e+03	6.695365795356700e-01	5.348700170890126e+01	1.785044889205107e+03	
650	1.300000000000000e+01	1.000000000000000e+00	2.652351819764741e-03	-3.804269813721435e-02	1.733391531085267e+03	5.625930853052168e-01	5.292038054304547e+01	1.736058292534372e+03	
651	1.400000000000000e+01	1.000000000000000e+00	2.823079077627907e-03	-3.746679046016115e-02	1.684716846575873e+03	4.460216959962064e-01	5.245898770976829e+01	1.687535479066344e+03	
652	1.500000000000000e+01	1.000000000000000e+00	2.988942764394840e-03	-3.685727227002548e-02	1.636406935690942e+03	3.392571846983170e-01	5.210535919415322e+01	1.639383214041128e+03	
653	1.600000000000000e+01	1.000000000000000e+00	3.149974306645022e-03	-3.621510389079323e-02	1.588382209976122e+03	2.507621795098220e-01	5.184748855096073e+01	1.591513161666196e+03	
654	1.700000000000000e+01	1.000000000000000e+00	3.306197294511007e-03	-3.554123392416846e-02	1.540570066747458e+03	1.824482303684913e-01	5.166759880546606e+01	1.543849791380638e+03	
655	1.800000000000000e+01	1.000000000000000e+00	3.457628689651146e-03	-3.483660513253869e-02	1.492909807336938e+03	1.327671293027635e-01	5.154724292151284e+01	1.496332772073881e+03	
656	1.900000000000000e+01	1.000000000000000e+00	3.604280203330121e-03	-3.410215804864777e-02	1.445353685183941e+03	9.868038179179450e-02	5.146989563353434e+01	1.448916363884323e+03	
657	2.000000000000000e+01	1.000000000000000e+00	3.746159595590081e-03	-3.333883302725828e-02	1.397865896335352e+03	7.680650212402718e-02	5.142197761855915e+01	1.401567414998515e+03	
658	2.100000000000000e+01	1.000000000000000e+00	3.883271782144051e-03	-3.254757128773001e-02	1.350420678205550e+03	6.402014915546772e-02	5.139298545019234e+01	1.354262921212557e+03	
659	2.200000000000000e+01	1.000000000000000e+00	4.015619716833460e-03	-3.172931534252581e-02	1.303000207470968e+03	5.771428558658975e-02	5.137516853896223e+01	1.306987671065709e+03	
660	2.300000000000000e+01	1.000000000000000e+00	4.143205061893038e-03	-3.088500908159580e-02	1.255592666613621e+03	5.587229335355026e-02	5.136301968178947e+01	1.259732225933488e+03	
661	2.400000000000000e+01	1.000000000000000e+00	4.266028678960372e-03	-3.001559768861749e-02	1.208190649119219e+03	5.704582706810868e-02	5.135272513500369e+01	1.212491324883952e+03	
662	2.500000000000000e+01	1.000000000000000e+00	4.384090981373585e-03	-2.912202749831629e-02	1.160789959128415e+03	6.029687871335199e-02	5.134164413492832e+01	1.165262719954696e+03	
663	2.600000000000000e+01	1.000000000000000e+00	4.497392188424658e-03	-2.820524585844674e-02	1.113388805301806e+03	6.513804458245609e-02	5.132783966101829e+01	1.118046410741585e+03	
664	2.700000000000000e+01	1.000000000000000e+00	4.605932519824250e-03	-2.726620102957100e-02	1.065987365816765e+03	7.148819921854610e-02	5.130965698996269e+01	1.070844237860435e+03	
665	2.800000000000000e+01	1.000000000000000e+00	4.709712365439632e-03	-2.630584213501644e-02	1.018587699657058e+03	7.965063454396493e-02	5.128533344254617e+01	1.023659800729178e+03	
666	2.900000000000000e+01	1.000000000000000e+00	4.808732463275336e-03	-2.532511915784190e-02	9.711939880758546e+02	9.031374905077527e-02	5.125261886679029e+01	9.764986789821259e+02	
667	3.000000000000000e+01	1.000000000000000e+00	4.902994117296881e-03	-2.432498296711650e-02	9.238130968869348e+02	1.045683751741340e-01	5.120838930550917e+01	9.293689483657287e+02	
668	3.100000000000000e+01	1.000000000000000e+00	4.992499486628088e-03	-2.330638533870806e-02	8.764554537019052e+02	1.239297315006453e-01	5.114824566086255e+01	8.822819912256100e+02	
669	3.200000000000000e+01	1.000000000000000e+00	5.077251977183185e-03	-2.227027891236013e-02	8.291362223788900e+02	1.503442692666255e-01	5.106610513814246e+01	8.352535989034125e+02	
670	3.300000000000000e+01	1.000000000000000e+00	5.157256764818211e-03	-2.121761699305592e-02	7.818767229350970e+02	1.861504380178296e-01	5.095381970090118e+01	7.883053457254105e+02	
671	3.400000000000000e+01	1.000000000000000e+00	5.232521472581081e-03	-2.014935305597845e-02	7.347059764157010e+02	2.339473155674705e-01	5.080089545581841e+01	7.414661728271354e+02	
672	3.500000000000000e+01	1.000000000000000e+00	5.303057009509883e-03	-1.906643974505561e-02	6.876621258604957e+02	2.963001348678249e-01	5.059444820059679e+01	6.947740432186322e+02	
673	3.600000000000000e+01	1.000000000000000e+00	5.368878548230049e-03	-1.796982705761878e-02	6.407932740057009e+02	3.751754559027303e-01	5.031962279209241e+01	6.482774087548422e+02	
674	3.700000000000000e+01	1.000000000000000e+00	5.430006562849235e-03	-1.686045927121185e-02	5.941569204404291e+02	4.709334457872263e-01	4.996085244123380e+01	6.020360439877508e+02	
675	3.800000000000000e+01	1.000000000000000e+00	5.486467751423267e-03	-1.573926997521067e-02	5.478165890341006e+02	5.805859172189889e-01	4.950458001491324e+01	5.561205416788266e+02	
676	3.900000000000000e+01	1.000000000000000e+00	5.538295499882753e-03	-1.460717428822433e-02	5.018332126430449e+02	6.947866483132978e-01	4.894450829922449e+01	5.106094217492354e+02	
677	4.000000000000000e+01	1.000000000000000e+00	5.585529256718413e-03	-1.346505690845495e-02	4.562469944197499e+02	7.925026791991101e-01	4.829128606146288e+01	4.655824172845486e+02	
678	4.100000000000000e+01	1.000000000000000e+00	5.628211682427107e-03	-1.231375394478497e-02	4.110419594054470e+02	8.311351871721326e-01	4.759038364117892e+01	4.211084168789490e+02	
679	4.200000000000000e+01	1.000000000000000e+00	5.666381519123264e-03	-1.115402518281156e-02	3.660783027139562e+02	7.271521804492789e-01	4.695537726811011e+01	3.772276408400098e+02	
680	4.300000000000000e+01	1.000000000000000e+00	5.700058362795273e-03	-9.986511321495186e-03	3.209623697573118e+02	3.150629001665930e-01	4.663533162824997e+01	3.339372875541868e+02	
681	4.400000000000000e+01	1.000000000000000e+00	5.729211982107493e-03	-8.811664521204358e-03	2.747900180691121e+02	-7.432652965405300e-01	4.714453644477540e+01	2.912198817193428e+02	
682	4.500000000000000e+01	1.000000000000000e+00	5.753701202831053e-03	-7.629637651980999e-03	2.256090297602133e+02	-3.192986119181641e+00	4.961656512577851e+01	2.493944197651531e+02	
683	4.600000000000000e+01	1.000000000000000e+00	5.773149794694019e-03	-6.440050237566790e-03	1.693070101409205e+02	-8.723952375966180e+00	5.630754985767105e+01	2.106589288366044e+02	
684	4.700000000000000e+01	1.000000000000000e+00	5.786695327097057e-03	-5.241725248347081e-03	9.675335676674351e+01	-2.211845144464791e+01	7.408322264187848e+01	1.899573696792793e+02	
685	4.800000000000000e+01	1.000000000000000e+00	5.792422692661917e-03	-4.030946685673429e-03	-6.456403340853900e+00	-5.362705197270243e+01	1.115113668755046e+02	2.279565964435399e+02	
686	4.900000000000000e+01	1.000000000000000e+00	5.787206539916255e-03	-2.804494501579544e-03	-1.691889885904894e+02	-1.555843006033866e+02	2.471235354470831e+02	4.944342773541185e+02	
687	5.000000000000000e+01	1.000000000000000e+00	5.766508513581046e-03	-1.525702564384968e-03	3.409747122284213e+02	-1.979741084216736e+02	2.591030753689500e+02	7.476653301730123e+02	
688	5.100000000000000e+01	1.000000000000000e+00	5.865946376796731e-03	-3.608953902307939e-04	1.256405066800828e+02	-2.331725084393167e+03	-7.161048671055983e+01	2.461535678274535e+03	
